*Heading
 C:\Users\ucemeam\OneDrive - University College London\git\Simulating_Surface_Based_Inflatables\Simulation_SOFA\Sim1_2D_Circle\MESH_geometry\Sim1_2D_Circle_LC4.inp
*NODE
1, -4.0000000000044, -120.91673086804, 0
2, -4, 12, 0
3, 4, 12, 0
4, 4, -120.91673086802, 0
5, 8.9090909091089, -126.81672386423, 0
6, -8.9090909091001, -126.81672386425, 0
7, -6.0000000000044, -120.91673086804, 0
8, -6, 14, 0
9, 6, 14, 0
10, 6, -120.91673086802, 0
11, 9.2727272727392, -124.85005953216, 0
12, -9.2727272727349, -124.85005953218, 0
13, 20.25, 10, 0
14, -15.75, 10, 0
15, -15.75, -10, 0
16, 20.25, -10, 0
17, -25, 18, 0
18, -25, -18, 0
19, -10, -18, 0
20, -10, -116.90524980689, 0
21, -13.75, -121.74647898965, 0
22, 13.75, -121.74647898965, 0
23, 10, -116.90524980689, 0
24, 10, -18, 0
25, 25, -18, 0
26, 25, 18, 0
27, -4.0000000000043, -117.00741525427, 0
28, -4.0000000000042, -113.09809964051, 0
29, -4.000000000004, -109.18878402674, 0
30, -4.0000000000039, -105.27946841298, 0
31, -4.0000000000038, -101.37015279921, 0
32, -4.0000000000037, -97.460837185444, 0
33, -4.0000000000035, -93.551521571678, 0
34, -4.0000000000034, -89.642205957912, 0
35, -4.0000000000033, -85.732890344146, 0
36, -4.0000000000031, -81.82357473038, 0
37, -4.000000000003, -77.914259116615, 0
38, -4.0000000000029, -74.004943502849, 0
39, -4.0000000000027, -70.095627889083, 0
40, -4.0000000000026, -66.186312275317, 0
41, -4.0000000000025, -62.276996661551, 0
42, -4.0000000000024, -58.367681047785, 0
43, -4.0000000000022, -54.458365434019, 0
44, -4.0000000000021, -50.549049820254, 0
45, -4.000000000002, -46.639734206488, 0
46, -4.0000000000018, -42.730418592722, 0
47, -4.0000000000017, -38.821102978956, 0
48, -4.0000000000016, -34.91178736519, 0
49, -4.0000000000015, -31.002471751424, 0
50, -4.0000000000013, -27.093156137659, 0
51, -4.0000000000012, -23.183840523893, 0
52, -4.0000000000011, -19.274524910127, 0
53, -4.0000000000009, -15.365209296361, 0
54, -4.0000000000008, -11.455893682595, 0
55, -4.0000000000007, -7.5465780688293, 0
56, -4.0000000000005, -3.6372624550634, 0
57, -4.0000000000004, 0.27205315870243, 0
58, -4.0000000000003, 4.1813687724683, 0
59, -4.0000000000002, 8.0906843862341, 0
60, -1.5099033134902e-14, 12, 0
61, 4, 8.0906843862348, 0
62, 4, 4.1813687724697, 0
63, 4, 0.27205315870447, 0
64, 4, -3.6372624550607, 0
65, 4, -7.5465780688259, 0
66, 4, -11.455893682591, 0
67, 4, -15.365209296356, 0
68, 4, -19.274524910121, 0
69, 4, -23.183840523887, 0
70, 4, -27.093156137652, 0
71, 4, -31.002471751417, 0
72, 4, -34.911787365182, 0
73, 4, -38.821102978947, 0
74, 4, -42.730418592712, 0
75, 4, -46.639734206478, 0
76, 4, -50.549049820243, 0
77, 4, -54.458365434008, 0
78, 4, -58.367681047773, 0
79, 4, -62.276996661538, 0
80, 4, -66.186312275304, 0
81, 4, -70.095627889069, 0
82, 4, -74.004943502834, 0
83, 4, -77.914259116599, 0
84, 4, -81.823574730364, 0
85, 4, -85.732890344129, 0
86, 4, -89.642205957895, 0
87, 4, -93.55152157166, 0
88, 4, -97.460837185425, 0
89, 4, -101.37015279919, 0
90, 4, -105.27946841296, 0
91, 4, -109.18878402672, 0
92, 4, -113.09809964049, 0
93, 4, -117.00741525425, 0
94, 4.6307726475901, -123.59467740186, 0
95, 6.3904658793776, -125.70956546062, 0
96, 12.781385362696, -127.69634064669, 0
97, 16.56973901271, -128.88662071528, 0
98, 20.249272126588, -130.37974699364, 0
99, 23.795819642594, -132.16591348532, 0
100, 27.186089872077, -134.2333896739, 0
101, 30.397817465912, -136.56859756234, 0
102, 33.409909640537, -139.15620084546, 0
103, 36.202584703247, -141.97920562998, 0
104, 38.757501967002, -145.01907204063, 0
105, 41.057882201531, -148.25583597948, 0
106, 43.088617829686, -151.66824023862, 0
107, 44.836372145341, -155.23387410533, 0
108, 46.289666901222, -158.92932054274, 0
109, 47.438957691446, -162.73030997955, 0
110, 48.276696633704, -166.61187969861, 0
111, 48.797381939418, -170.5485377777, 0
112, 48.997594046331, -174.51443050589, 0
113, 48.876018076231, -178.48351217584, 0
114, 48.433452470314, -182.42971613708, 0
115, 47.672803745484, -186.3271259868, 0
116, 46.599067406013, -190.1501457739, 0
117, 45.219295135941, -193.87366809853, 0
118, 43.54254848766, -197.47323900306, 0
119, 41.579839370836, -200.92521857165, 0
120, 39.344057732513, -204.20693618367, 0
121, 36.849886903332, -207.29683940127, 0
122, 34.113707165844, -210.17463551347, 0
123, 31.153488178219, -212.82142480704, 0
124, 27.98867095984, -215.21982468894, 0
125, 24.640040213845, -217.35408384524, 0
126, 21.12958782513, -219.21018568669, 0
127, 17.480368430265, -220.77594040165, 0
128, 13.716348007879, -222.04106501176, 0
129, 9.8622464838584, -222.99725090467, 0
130, 5.9433753850697, -223.63821840021, 0
131, 1.9854716077723, -223.95975799174, 0
132, -1.9854716075434, -223.95975799174, 0
133, -5.9433753848415, -223.63821840023, 0
134, -9.8622464836316, -222.9972509047, 0
135, -13.716348007654, -222.04106501179, 0
136, -17.480368430044, -220.77594040169, 0
137, -21.129587824912, -219.21018568674, 0
138, -24.640040213631, -217.3540838453, 0
139, -27.988670959631, -215.21982468901, 0
140, -31.153488178016, -212.82142480711, 0
141, -34.113707165647, -210.17463551355, 0
142, -36.849886903141, -207.29683940135, 0
143, -39.344057732329, -204.20693618376, 0
144, -41.57983937066, -200.92521857175, 0
145, -43.542548487491, -197.47323900316, 0
146, -45.219295135781, -193.87366809863, 0
147, -46.599067405861, -190.15014577401, 0
148, -47.67280374534, -186.32712598691, 0
149, -48.43345247018, -182.42971613719, 0
150, -48.876018076105, -178.48351217595, 0
151, -48.997594046214, -174.514430506, 0
152, -48.79738193931, -170.54853777781, 0
153, -48.276696633606, -166.61187969872, 0
154, -47.438957691357, -162.73030997966, 0
155, -46.289666901141, -158.92932054284, 0
156, -44.836372145268, -155.23387410543, 0
157, -43.088617829621, -151.66824023872, 0
158, -41.057882201474, -148.25583597958, 0
159, -38.757501966952, -145.01907204072, 0
160, -36.202584703204, -141.97920563006, 0
161, -33.409909640501, -139.15620084554, 0
162, -30.397817465882, -136.56859756241, 0
163, -27.186089872052, -134.23338967396, 0
164, -23.795819642574, -132.16591348537, 0
165, -20.249272126571, -130.37974699369, 0
166, -16.569739012697, -128.88662071532, 0
167, -12.781385362686, -127.69634064672, 0
168, -6.3904658793748, -125.70956546064, 0
169, -4.6307726475925, -123.59467740188, 0
170, -6.0000000000043, -116.94859172486, 0
171, -6.0000000000042, -112.98045258168, 0
172, -6.000000000004, -109.01231343851, 0
173, -6.0000000000039, -105.04417429533, 0
174, -6.0000000000038, -101.07603515215, 0
175, -6.0000000000036, -97.107896008973, 0
176, -6.0000000000035, -93.139756865796, 0
177, -6.0000000000034, -89.171617722618, 0
178, -6.0000000000032, -85.20347857944, 0
179, -6.0000000000031, -81.235339436263, 0
180, -6.000000000003, -77.267200293085, 0
181, -6.0000000000029, -73.299061149908, 0
182, -6.0000000000027, -69.33092200673, 0
183, -6.0000000000026, -65.362782863552, 0
184, -6.0000000000025, -61.394643720375, 0
185, -6.0000000000023, -57.426504577197, 0
186, -6.0000000000022, -53.458365434019, 0
187, -6.0000000000021, -49.490226290842, 0
188, -6.0000000000019, -45.522087147664, 0
189, -6.0000000000018, -41.553948004487, 0
190, -6.0000000000017, -37.585808861309, 0
191, -6.0000000000015, -33.617669718131, 0
192, -6.0000000000014, -29.649530574954, 0
193, -6.0000000000013, -25.681391431776, 0
194, -6.0000000000012, -21.713252288599, 0
195, -6.000000000001, -17.745113145421, 0
196, -6.0000000000009, -13.776974002243, 0
197, -6.0000000000008, -9.8088348590657, 0
198, -6.0000000000006, -5.8406957158881, 0
199, -6.0000000000005, -1.8725565727105, 0
200, -6.0000000000004, 2.0955825704671, 0
201, -6.0000000000002, 6.0637217136448, 0
202, -6.0000000000001, 10.031860856822, 0
203, -2, 14, 0
204, 2, 14, 0
205, 6, 10.031860856823, 0
206, 6, 6.0637217136461, 0
207, 6, 2.0955825704692, 0
208, 6, -1.8725565727078, 0
209, 6, -5.8406957158847, 0
210, 6, -9.8088348590617, 0
211, 6, -13.776974002239, 0
212, 6, -17.745113145416, 0
213, 6, -21.713252288592, 0
214, 6, -25.681391431769, 0
215, 6, -29.649530574946, 0
216, 6, -33.617669718123, 0
217, 6, -37.5858088613, 0
218, 6, -41.553948004477, 0
219, 6, -45.522087147654, 0
220, 6, -49.490226290831, 0
221, 6, -53.458365434008, 0
222, 6, -57.426504577185, 0
223, 6, -61.394643720362, 0
224, 6, -65.362782863539, 0
225, 6, -69.330922006716, 0
226, 6, -73.299061149893, 0
227, 6, -77.26720029307, 0
228, 6, -81.235339436247, 0
229, 6, -85.203478579424, 0
230, 6, -89.1716177226, 0
231, 6, -93.139756865777, 0
232, 6, -97.107896008954, 0
233, 6, -101.07603515213, 0
234, 6, -105.04417429531, 0
235, 6, -109.01231343849, 0
236, 6, -112.98045258166, 0
237, 6, -116.94859172484, 0
238, 6.9251755408607, -123.47513946429, 0
239, 13.145465940806, -125.72326385399, 0
240, 16.938550511735, -126.89505735824, 0
241, 20.62899703591, -128.35833963826, 0
242, 24.194443492294, -130.1042440301, 0
243, 27.61328528964, -132.12219133951, 0
244, 30.864806178116, -134.3999539458, 0
245, 33.929303778065, -136.92372989439, 0
246, 36.788208965305, -139.67822652884, 0
247, 39.424198389525, -142.64675315567, 0
248, 41.821299444003, -145.81132218058, 0
249, 43.964987050578, -149.15275810309, 0
250, 45.84227167342, -152.65081370923, 0
251, 47.441778028277, -156.28429275824, 0
252, 48.75381401027, -160.03117841979, 0
253, 49.770429422578, -163.86876668357, 0
254, 50.485464150134, -167.77380393271, 0
255, 50.894585486443, -171.72262784762, 0
256, 50.995314387338, -175.69131078625, 0
257, 50.787040492587, -179.65580477207, 0
258, 50.271025824327, -183.59208721124, 0
259, 49.45039713993, -187.47630645597, 0
260, 48.330126985613, -191.28492633201, 0
261, 46.917003565619, -194.99486875457, 0
262, 45.219589609538, -198.58365356847, 0
263, 43.248170486997, -202.02953476522, 0
264, 41.014691884137, -205.31163225149, 0
265, 38.532687419498, -208.41005837072, 0
266, 35.81719663794, -211.30603841106, 0
267, 32.884673879498, -213.98202436955, 0
268, 29.752888575374, -216.42180128306, 0
269, 26.440817575224, -218.61058548182, 0
270, 22.968530158173, -220.53511417015, 0
271, 19.357066424316, -222.18372579144, 0
272, 15.628309803603, -223.54643069064, 0
273, 11.804854454614, -224.61497164591, 0
274, 7.9098683567217, -225.38287390273, 0
275, 3.9669529252276, -225.84548440726, 0
276, 1.1663932094481e-10, -226.00000000117, 0
277, -3.9669529249946, -225.84548440727, 0
278, -7.9098683564897, -225.38287390275, 0
279, -11.804854454384, -224.61497164594, 0
280, -15.628309803375, -223.54643069067, 0
281, -19.357066424091, -222.18372579148, 0
282, -22.968530157952, -220.5351141702, 0
283, -26.440817575007, -218.61058548188, 0
284, -29.752888575162, -216.42180128312, 0
285, -32.884673879292, -213.98202436962, 0
286, -35.81719663774, -211.30603841114, 0
287, -38.532687419304, -208.4100583708, 0
288, -41.01469188395, -205.31163225158, 0
289, -43.248170486818, -202.02953476531, 0
290, -45.219589609366, -198.58365356857, 0
291, -46.917003565456, -194.99486875467, 0
292, -48.330126985458, -191.28492633212, 0
293, -49.450397139784, -187.47630645609, 0
294, -50.27102582419, -183.59208721135, 0
295, -50.787040492458, -179.65580477218, 0
296, -50.995314387219, -175.69131078637, 0
297, -50.894585486332, -171.72262784774, 0
298, -50.485464150033, -167.77380393283, 0
299, -49.770429422486, -163.86876668368, 0
300, -48.753814010187, -160.0311784199, 0
301, -47.441778028201, -156.28429275835, 0
302, -45.842271673353, -152.65081370933, 0
303, -43.964987050519, -149.15275810319, 0
304, -41.821299443951, -145.81132218068, 0
305, -39.424198389481, -142.64675315576, 0
306, -36.788208965268, -139.67822652892, 0
307, -33.929303778034, -136.92372989447, 0
308, -30.86480617809, -134.39995394587, 0
309, -27.61328528962, -132.12219133957, 0
310, -24.194443492277, -130.10424403016, 0
311, -20.628997035898, -128.3583396383, 0
312, -16.938550511726, -126.89505735828, 0
313, -13.1454659408, -125.72326385402, 0
314, -6.9251755408623, -123.47513946431, 0
315, 19.402852054182, 11.759120835553, 0
316, 17.499327898598, 12.193587802409, 0
317, 15.97282004722, 10.976238413015, 0
318, 15.97282004722, 9.0237615869855, 0
319, 17.499327898598, 7.8064121975909, 0
320, 19.402852054182, 8.2408791644469, 0
321, -16.597147945818, 11.759120835553, 0
322, -18.500672101402, 12.193587802409, 0
323, -20.02717995278, 10.976238413015, 0
324, -20.02717995278, 9.0237615869855, 0
325, -18.500672101402, 7.8064121975909, 0
326, -16.597147945818, 8.2408791644469, 0
327, -16.597147945818, -8.2408791644469, 0
328, -18.500672101402, -7.8064121975909, 0
329, -20.02717995278, -9.0237615869855, 0
330, -20.02717995278, -10.976238413014, 0
331, -18.500672101402, -12.193587802409, 0
332, -16.597147945818, -11.759120835553, 0
333, 19.402852054182, -8.2408791644469, 0
334, 17.499327898598, -7.8064121975909, 0
335, 15.97282004722, -9.0237615869855, 0
336, 15.97282004722, -10.976238413014, 0
337, 17.499327898598, -12.193587802409, 0
338, 19.402852054182, -11.759120835553, 0
339, -25, 14, 0
340, -25, 10, 0
341, -25, 6, 0
342, -25, 2, 0
343, -25, -2, 0
344, -25, -6, 0
345, -25, -10, 0
346, -25, -14, 0
347, -21.25, -18, 0
348, -17.5, -18, 0
349, -13.75, -18, 0
350, -10, -21.956209992276, 0
351, -10, -25.912419984551, 0
352, -10, -29.868629976827, 0
353, -10, -33.824839969102, 0
354, -10, -37.781049961378, 0
355, -10, -41.737259953653, 0
356, -10, -45.693469945929, 0
357, -10, -49.649679938205, 0
358, -10, -53.60588993048, 0
359, -10, -57.562099922756, 0
360, -10, -61.518309915031, 0
361, -10, -65.474519907307, 0
362, -10, -69.430729899582, 0
363, -10, -73.386939891858, 0
364, -10, -77.343149884133, 0
365, -10, -81.299359876409, 0
366, -10, -85.255569868685, 0
367, -10, -89.21177986096, 0
368, -10, -93.167989853236, 0
369, -10, -97.124199845511, 0
370, -10, -101.08040983779, 0
371, -10, -105.03661983006, 0
372, -10, -108.99282982234, 0
373, -10, -112.94903981461, 0
374, -11.04715292479, -119.96711198537, 0
375, -17.556930816242, -122.87750792303, 0
376, -21.272322124402, -124.28029661526, 0
377, -24.876802367101, -125.9475311122, 0
378, -28.351578262544, -127.87051867437, 0
379, -31.678532790194, -130.03923309973, 0
380, -34.840319650514, -132.44236699898, 0
381, -37.820453706274, -135.06739075077, 0
382, -40.603396933867, -137.90061782953, 0
383, -43.174639436505, -140.92727616512, 0
384, -45.520775096892, -144.13158516253, 0
385, -47.629571474946, -147.49683797974, 0
386, -49.490033586116, -151.005488635, 0
387, -51.092461227772, -154.63924348929, 0
388, -52.428499554778, -158.37915662686, 0
389, -53.491182640543, -162.20572863677, 0
390, -54.274969796437, -166.09900828022, 0
391, -54.775774460212, -170.03869651363, 0
392, -54.990985502789, -174.00425232524, 0
393, -54.919480842345, -177.97499983312, 0
394, -54.561633294692, -181.93023608655, 0
395, -53.91930862947, -185.84933900842, 0
396, -52.995855842269, -189.71187491604, 0
397, -51.796089693412, -193.49770505959, 0
398, -50.326265604431, -197.18709062297, 0
399, -48.594047043133, -200.76079563929, 0
400, -46.60846556729, -204.20018728472, 0
401, -44.3798737353, -207.48733302748, 0
402, -41.919891129318, -210.60509412578, 0
403, -39.241343772299, -213.53721498687, 0
404, -36.358197254811, -216.26840792156, 0
405, -33.285483920303, -218.78443285222, 0
406, -30.039224488461, -221.07217155867, 0
407, -26.636344525294, -223.11969607478, 0
408, -23.094586195489, -224.91633087937, 0
409, -19.432415757108, -226.45270855691, 0
410, -15.668927280974, -227.72081863802, 0
411, -11.823743096719, -228.71404936497, 0
412, -7.9169114845564, -229.42722216451, 0
413, -3.968802146212, -229.85661864829, 0
414, 8.7926075508838e-13, -230, 0
415, 3.9688021462138, -229.85661864829, 0
416, 7.9169114845582, -229.42722216451, 0
417, 11.823743096721, -228.71404936497, 0
418, 15.668927280976, -227.72081863802, 0
419, 19.432415757109, -226.45270855691, 0
420, 23.09458619549, -224.91633087937, 0
421, 26.636344525296, -223.11969607478, 0
422, 30.039224488462, -221.07217155867, 0
423, 33.285483920305, -218.78443285222, 0
424, 36.358197254812, -216.26840792155, 0
425, 39.2413437723, -213.53721498686, 0
426, 41.919891129319, -210.60509412578, 0
427, 44.379873735301, -207.48733302748, 0
428, 46.608465567291, -204.20018728471, 0
429, 48.594047043134, -200.76079563929, 0
430, 50.326265604432, -197.18709062297, 0
431, 51.796089693413, -193.49770505959, 0
432, 52.99585584227, -189.71187491604, 0
433, 53.919308629471, -185.84933900842, 0
434, 54.561633294693, -181.93023608655, 0
435, 54.919480842345, -177.97499983312, 0
436, 54.99098550279, -174.00425232524, 0
437, 54.775774460212, -170.03869651363, 0
438, 54.274969796437, -166.09900828021, 0
439, 53.491182640543, -162.20572863677, 0
440, 52.428499554778, -158.37915662686, 0
441, 51.092461227772, -154.63924348929, 0
442, 49.490033586116, -151.005488635, 0
443, 47.629571474946, -147.49683797973, 0
444, 45.520775096892, -144.13158516253, 0
445, 43.174639436504, -140.92727616512, 0
446, 40.603396933867, -137.90061782953, 0
447, 37.820453706274, -135.06739075077, 0
448, 34.840319650514, -132.44236699897, 0
449, 31.678532790194, -130.03923309973, 0
450, 28.351578262544, -127.87051867437, 0
451, 24.876802367101, -125.9475311122, 0
452, 21.272322124401, -124.28029661526, 0
453, 17.556930816242, -122.87750792303, 0
454, 11.04715292479, -119.96711198537, 0
455, 10, -112.94903981461, 0
456, 10, -108.99282982234, 0
457, 10, -105.03661983006, 0
458, 10, -101.08040983779, 0
459, 10, -97.124199845511, 0
460, 10, -93.167989853236, 0
461, 10, -89.21177986096, 0
462, 10, -85.255569868684, 0
463, 10, -81.299359876409, 0
464, 10, -77.343149884133, 0
465, 10, -73.386939891858, 0
466, 10, -69.430729899582, 0
467, 10, -65.474519907307, 0
468, 10, -61.518309915031, 0
469, 10, -57.562099922756, 0
470, 10, -53.60588993048, 0
471, 10, -49.649679938204, 0
472, 10, -45.693469945929, 0
473, 10, -41.737259953653, 0
474, 10, -37.781049961378, 0
475, 10, -33.824839969102, 0
476, 10, -29.868629976827, 0
477, 10, -25.912419984551, 0
478, 10, -21.956209992276, 0
479, 13.75, -18, 0
480, 17.5, -18, 0
481, 21.25, -18, 0
482, 25, -14, 0
483, 25, -10, 0
484, 25, -6, 0
485, 25, -2, 0
486, 25, 2, 0
487, 25, 6, 0
488, 25, 10, 0
489, 25, 14, 0
490, 21.153846153846, 18, 0
491, 17.307692307692, 18, 0
492, 13.461538461538, 18, 0
493, 9.6153846153845, 18, 0
494, 5.7692307692307, 18, 0
495, 1.9230769230768, 18, 0
496, -1.9230769230768, 18, 0
497, -5.7692307692307, 18, 0
498, -9.6153846153845, 18, 0
499, -13.461538461538, 18, 0
500, -17.307692307692, 18, 0
501, -21.153846153846, 18, 0
502, -20.441107877025, -134.32400633818, 0
503, 21.277382672783, -215.24199381856, 0
504, -39.897365802646, -197.77156059501, 0
505, 40.837243645178, -154.37396659172, 0
506, 10.742269573399, -130.01367050386, 0
507, -43.57255888445, -161.82513028191, 0
508, -14.444361710208, -218.22003342055, 0
509, 43.491860958981, -187.05805954703, 0
510, 26.951664485182, -137.93941723721, 0
511, -44.951942383994, -179.83113698348, 0
512, 35.789888279361, -203.94604812201, 0
513, -34.995745939705, -145.37682766589, 0
514, 3.9590572810732, -220.5510938003, 0
515, 45.214581821057, -172.67767487595, 0
516, -30.470434565383, -209.45269659936, 0
517, -6.451026333198, -128.73886562608, 0
518, 35.156454354876, -145.78345134981, 0
519, 3.522419487207, -126.22942490942, 0
520, 17.133945694036, -132.79733698626, 0
521, -3.7063406893252, -220.65387284253, 0
522, 41.066677834615, -194.19695047866, 0
523, 27.384472873451, -211.09731850634, 0
524, -21.30150647023, -215.17830060366, 0
525, -40.749020794623, -155.04665970909, 0
526, -45.669119971332, -172.42874755553, 0
527, -35.700602170192, -203.70257542022, 0
528, -42.737863762058, -190.44787201057, 0
529, -29.662933375085, -140.47094754574, 0
530, 45.320949515531, -179.59669786676, 0
531, 43.850139911078, -165.42091509555, 0
532, 10.961215971865, -219.18140812965, 0
533, -13.575567017536, -131.47600085165, 0
534, -2.1021618811754, -122.76413709206, 0
535, -2.6269892431036, -125.47991580562, 0
536, 5.4446678850683, -128.32525354558, 0
537, 2.3360763189206, -129.05242535094, 0
538, 4.4664519037774, -131.60500808845, 0
539, 1.0391450166935, -132.28539588395, 0
540, 3.4179136342586, -135.11409496591, 0
541, -0.22321520922181, -135.74650015126, 0
542, 2.170842309023, -138.677842576, 0
543, -1.5296861869048, -139.30698311222, 0
544, 0.87969205400893, -142.26853619273, 0
545, -2.8998753460346, -142.92657001818, 0
546, -0.43407404340476, -145.88548370068, 0
547, -4.2419001837323, -146.53412087269, 0
548, -1.7499309819287, -149.51468579164, 0
549, -5.5509198190958, -150.18700533638, 0
550, -3.0752879527232, -153.1555554542, 0
551, -6.8885307091168, -153.82933905012, 0
552, -4.3936423799274, -156.80588433105, 0
553, -0.5764643954426, -156.0922759105, 0
554, -1.9054375795387, -159.77867428817, 0
555, -5.7261359297542, -160.46725476428, 0
556, -3.2290187553039, -163.44839256578, 0
557, 0.60370534996723, -162.7384128478, 0
558, -0.72744488522872, -166.43319832338, 0
559, -4.5609990332129, -167.11827592666, 0
560, -2.0599799362345, -170.11088489312, 0
561, 1.7847212114511, -169.4175405215, 0
562, 0.44894342371973, -173.10683382472, 0
563, -3.4039415396861, -173.78784260001, 0
564, -0.88761064902197, -176.79053186593, 0
565, 2.9677745573501, -176.1011515494, 0
566, 1.6294485695276, -179.79600351441, 0
567, -4.7487253957311, -177.4698563599, 0
568, 5.4950591234874, -179.10543949396, 0
569, 4.1513884433275, -182.80581225088, 0
570, 8.0227344544534, -182.12338201768, 0
571, 9.3656587529432, -178.42003215413, 0
572, 6.6742855483865, -185.81817937528, 0
573, 2.8027900904272, -186.50151788431, 0
574, 11.89642056948, -181.44049726016, 0
575, 13.241294168378, -177.74010721541, 0
576, 5.3277478500251, -189.51646093436, 0
577, 1.4546212330223, -190.19917083958, 0
578, 3.386014915757, -145.14848928236, 0
579, 15.77392412307, -180.75794807127, 0
580, 17.120075740485, -177.05392980806, 0
581, 3.9844552004888, -193.21853720048, 0
582, 0.10089347351725, -193.90151523963, 0
583, 7.850370216351, -192.53597219541, 0
584, 19.655205271216, -180.07394727123, 0
585, 21.001851103788, -176.36844541474, 0
586, 18.465967624607, -173.34851602702, 0
587, 22.347670920289, -172.66192915569, 0
588, 19.810712723564, -169.64229309027, 0
589, 2.6350276205187, -196.92438741688, 0
590, -1.2505129865065, -197.60734788715, 0
591, -3.7852767980909, -194.58260678709, 0
592, -5.1378141671765, -198.29011487499, 0
593, -7.6736179678805, -195.26228307973, 0
594, -9.385680761702, -150.83679711876, 0
595, 23.693716802737, -168.9562707542, 0
596, 21.155791810947, -165.93584966723, 0
597, 23.540567947073, -179.38833479691, 0
598, 22.190393113461, -183.09826832151, 0
599, -9.0271826657523, -198.97264112129, 0
600, -11.564452753109, -195.94295581573, 0
601, 1.283671377764, -200.63347711785, 0
602, 25.040255033742, -165.2492561409, 0
603, 22.501874936037, -162.22974879802, 0
604, 18.618897100447, -162.91660776152, 0
605, 19.962363540318, -159.21334983972, 0
606, -12.91906770634, -199.65597220813, 0
607, -15.456596429234, -196.62556090869, 0
608, -14.101248169219, -192.91291006362, 0
609, -17.992488227288, -193.59436453162, 0
610, -16.636572845136, -189.88410730688, 0
611, -20.527819336102, -190.56477074791, 0
612, -19.172004207764, -186.85521795425, 0
613, -23.06219219235, -187.53510801791, 0
614, -21.707026923152, -183.82374109895, 0
615, -25.59799100037, -184.50539821725, 0
616, -24.242240203766, -180.79266266387, 0
617, 27.57958211701, -168.27061152591, 0
618, 26.080592284844, -182.41154763991, 0
619, 24.727507740841, -186.1262605426, 0
620, -28.132173948021, -181.4722322615, 0
621, -26.776649185798, -177.76280633027, 0
622, -22.885995581245, -177.08073180742, 0
623, -25.419168231533, -174.05276624146, 0
624, -21.542627756404, -173.38270558312, 0
625, -24.076765880242, -170.35520505646, 0
626, -27.955686185447, -171.02729480433, 0
627, -26.59794621191, -167.31667922222, 0
628, -22.634321432995, -166.73091614337, 0
629, -25.175013799763, -163.66029752836, 0
630, 16.085965062664, -159.89881466459, 0
631, 17.425643129024, -156.20013608908, 0
632, 5.1729999892704, -199.94887796021, 0
633, -6.4892519186296, -201.99996255965, 0
634, -10.720734421312, -154.50128012708, 0
635, -13.215942310966, -151.51282923375, 0
636, -11.87147156529, -147.84993679983, 0
637, 23.843157689693, -158.522901515, 0
638, 3.8205652522242, -203.66183051092, 0
639, 7.7145171815493, -202.97545046522, 0
640, -24.424170226096, -191.24216512263, 0
641, -15.705187775367, -148.52753744908, 0
642, -16.813841472844, -200.34005099981, 0
643, -30.666689020768, -178.44839944964, 0
644, 28.621481627213, -185.43919655629, 0
645, 29.973475642731, -181.72239002359, 0
646, 27.269265210983, -189.15497164306, 0
647, 23.374160888593, -189.84091063424, 0
648, 25.916187020164, -192.87155893825, 0
649, 22.019093387889, -193.55802869925, 0
650, 28.928257952083, -164.55950245783, 0
651, 5.9057719758442, -137.93230202162, 0
652, 24.562463496318, -196.58954572208, 0
653, -14.273508670431, -203.37246506321, 0
654, -29.118443527758, -164.29201379735, 0
655, -27.763243733271, -160.57624299255, 0
656, -7.2656747922524, -174.46300176752, 0
657, -29.497459563806, -185.17190668887, 0
658, 13.55538990398, -156.88541231347, 0
659, 14.893280517905, -153.1922504938, 0
660, 18.765293596805, -152.50464097883, 0
661, 16.229385228034, -149.49757887192, 0
662, 14.743685752896, -163.59517862223, 0
663, -12.728982553733, -189.20776679877, 0
664, 20.665227255197, -197.27540703503, 0
665, 31.469606454255, -167.58448552662, 0
666, -17.815735699509, -183.14856791711, 0
667, -14.55778841874, -155.18064209631, 0
668, 6.3616461359756, -206.69180619769, 0
669, 2.464713359479, -207.37744775071, 0
670, 10.257767423808, -206.00540797138, 0
671, -5.2997211163761, -140.10245668427, 0
672, 20.105891671267, -148.80444681196, 0
673, 17.567532677312, -145.79369010736, 0
674, -18.171366317786, -204.05740440688, 0
675, 10.709057565174, -174.71513532169, 0
676, -20.712892115231, -201.02243600792, 0
677, -1.0738865104428, -187.18041265747, 0
678, 14.426712016488, -184.46022738127, 0
679, -14.363975616676, -144.86277305959, 0
680, -18.201309586974, -145.54135867384, 0
681, -19.54918642835, -149.20930090866, 0
682, 11.029629653325, -153.88304020852, 0
683, 32.820514510893, -163.86885187508, 0
684, 23.208159331663, -200.30952146089, 0
685, 29.810939073994, -192.18613774434, 0
686, 32.517279506205, -184.75226562669, 0
687, 33.869073641516, -181.03305274055, 0
688, -31.660704767526, -161.24857249117, 0
689, -33.022387656342, -164.96284928156, 0
690, -30.298270057336, -157.53592939385, 0
691, -15.628543946297, -207.09227266648, 0
692, 9.6934336855635, -157.56515148928, 0
693, 13.694807463946, -146.4876023254, 0
694, -8.612831111942, -178.14736696666, 0
695, -11.132838267088, -175.13659270475, 0
696, -23.833056044824, -159.93783030053, 0
697, 15.029760095849, -142.78751816705, 0
698, 30.117864101288, -171.29536204932, 0
699, 34.011960417028, -170.61226885494, 0
700, 18.122773446045, -194.24415577274, 0
701, 16.768632421086, -197.95947645868, 0
702, 5.00760815064, -210.4105831149, 0
703, 1.1081572195233, -211.09631053397, 0
704, -22.060887041608, -146.20861293883, 0
705, -23.390701853199, -149.87751447824, 0
706, -22.071889468084, -204.74219277507, 0
707, -24.614812292861, -201.70476373445, 0
708, 27.108378211944, -199.6225842162, 0
709, 18.906077694126, -142.08662060663, 0
710, -16.859345469544, -141.88234105092, 0
711, 7.1745587662538, -154.56502125174, 0
712, -13.032325955317, -141.20503608577, 0
713, -18.980498188086, -176.42335968442, 0
714, -17.586021714055, -172.7686876383, 0
715, 15.930125715532, -170.32640345001, 0
716, -6.3044610734379, -191.55617180734, 0
717, -9.7591793619343, -171.46413497279, 0
718, -11.729069683864, -206.4068347027, 0
719, -13.084380077625, -210.12839671769, 0
720, -9.1822174339287, -209.44243285776, 0
721, 30.27472424892, -160.8416880696, 0
722, 34.171272008753, -160.14987117407, 0
723, 31.62443830225, -157.12642444928, 0
724, -6.0955474182469, -181.15760505608, 0
725, -9.9779183147884, -181.83033012828, 0
726, 22.643722875393, -151.81506521521, 0
727, 23.989432839837, -148.11004051372, 0
728, -1.4268336132177, -208.06016514137, 0
729, -12.054175069693, -158.17397946624, 0
730, -15.90114915036, -158.85636387182, 0
731, -13.394207386185, -161.85563696568, 0
732, 26.530576745606, -151.13047488737, 0
733, 8.5109549280243, -150.89593562994, 0
734, -2.7827463385064, -211.78183321035, 0
735, 9.0490847794881, -199.26726539162, 0
736, -35.560217746906, -161.92423633, 0
737, -36.923915457006, -165.64114664032, 0
738, -34.384409214685, -168.67975871696, 0
739, -20.869393266771, -152.87625348536, 0
740, 25.822210336312, -203.47124013433, 0
741, 21.862334377547, -204.05276545848, 0
742, -25.925261857056, -146.90657792533, 0
743, 36.718021336641, -163.18058888017, 0
744, 36.415771480205, -184.06479499123, 0
745, 35.061507430806, -187.78692780946, 0
746, 37.737365674276, -180.33127558189, 0
747, -38.286895832768, -169.3601170152, 0
748, -35.747829813561, -172.39672111331, 0
749, 11.135890478868, -143.51483735721, 0
750, 12.472420977892, -139.81640134319, 0
751, -27.273262041806, -150.51204289091, 0
752, 27.829054789612, -147.45887422326, 0
753, 30.362582922885, -150.475309902, 0
754, 1.1072502165323, -118.78045588933, 0
755, -2.1365594422537, -132.95980785748, 0
756, -10.527764336538, -213.04428709917, 0
757, 5.8204729611983, -158.27145483013, 0
758, 8.3497337197079, -161.24093846888, 0
759, -0.2489936080053, -214.60832522045, 0
760, -17.241461158908, -162.52741869207, 0
761, -14.731762310284, -165.54254588847, 0
762, 4.652955634486, -151.59541689343, 0
763, -15.431393825687, -138.38832653393, 0
764, -11.510988359868, -138.19396692807, 0
765, -23.253169178883, -197.98685427147, 0
766, -27.157121145764, -198.66761047932, 0
767, -28.347807037556, -202.3546211687, 0
768, -30.918746097991, -199.3560749382, 0
769, -29.676153220655, -195.62853850981, 0
770, -7.4480808425603, -184.84502526931, 0
771, 31.31817061831, -178.00976688703, 0
772, 14.24124649056, -194.91317339479, 0
773, 15.590435943539, -191.20915077653, 0
774, -10.867980222184, -164.86041813348, 0
775, 25.349493474663, -144.53516271199, 0
776, -24.493205692275, -143.37042425719, 0
777, -33.413154815278, -196.17186925551, 0
778, -32.206197524255, -192.56592145792, 0
779, -36.002184743689, -193.09200063762, 0
780, -34.75471505695, -189.51425064082, 0
781, -39.496834454144, -173.13658339078, 0
782, -37.084721229134, -176.12744569552, 0
783, 29.01313862444, -143.87817105101, 0
784, -16.981684379654, -210.67810411697, 0
785, 29.656349310198, -202.65764888737, 0
786, 30.893045702811, -198.90790231711, 0
787, 2.0795048761788, -123.98943713492, 0
788, -9.8009298806298, -129.94913011845, 0
789, 35.358128990105, -156.57382306473, 0
790, -40.829996225387, -166.19278220616, 0
791, 40.353376693002, -183.6213718114, 0
792, -29.652424063707, -147.81873692219, 0
793, -31.175505889987, -151.26437866617, 0
794, -41.467186502129, -177.15816164735, 0
795, -38.47146051628, -179.8454820661, 0
796, -10.183368907098, -133.19193226086, 0
797, 24.3963323757, -207.06887961907, 0
798, 20.49407464241, -207.75922320921, 0
799, 17.967145862164, -204.69659819226, 0
800, 16.607785173663, -208.40165584581, 0
801, -6.7981742317948, -131.59745641514, 0
802, -7.1740344549125, -135.07072661945, 0
803, -4.1108989174965, -215.1591260262, 0
804, 0.61443336706821, 6.1360265793525, 0
805, 0.068218100434144, -1.6826046481785, 0
806, 0.068218100434173, -9.5012358757092, 0
807, 0.068218100434194, -17.31986710324, 0
808, 0.068218100434219, -25.138498330771, 0
809, 0.068218100434244, -32.957129558301, 0
810, 0.068218100434262, -40.775760785832, 0
811, 0.068218100434294, -48.594392013363, 0
812, 0.068218100434333, -56.413023240893, 0
813, 0.068218100434347, -64.231654468424, 0
814, 0.068218100434365, -72.050285695955, 0
815, 0.068218100434382, -79.868916923485, 0
816, 0.068218100434429, -87.687548151016, 0
817, 0.068218100434454, -95.506179378547, 0
818, 0.068218100434482, -103.32481060608, 0
819, 0.61443336706819, -111.1434418336, 0
820, -19.721354452251, -138.33155102815, 0
821, 22.94524352659, -211.00070948933, 0
822, 28.546323408042, -206.84464684291, 0
823, -1.1965517764601, -129.30390726165, 0
824, 1.2282376069262, -115.11253015115, 0
825, -0.162753374147, 2.2267109655869, 0
826, 0.022739366811173, -5.5919202619444, 0
827, 0.022739366811091, -13.410551489475, 0
828, 0.022739366810931, -29.047813944537, 0
829, 0.022739366811017, -21.229182717006, 0
830, 0.02273936681085, -36.866445172068, 0
831, 0.022739366810775, -44.685076399599, 0
832, 0.022739366810704, -52.50370762713, 0
833, 0.022739366810629, -60.322338854661, 0
834, 0.022739366810548, -68.140970082192, 0
835, 0.022739366810463, -75.959601309723, 0
836, 0.022739366810395, -83.778232537254, 0
837, 0.02273936681032, -91.596863764785, 0
838, 0.022739366810239, -99.415494992316, 0
839, -0.1627533741451, -107.23412621984, 0
840, -18.665822700019, -166.13801564942, 0
841, -19.758452223977, -159.4741158867, 0
842, -9.1211998125574, -140.88268303043, 0
843, 6.9562434976909, -134.35685282251, 0
844, -13.632775992095, -172.13245207317, 0
845, -15.044337574359, -175.79104598912, 0
846, -10.535604976097, -144.24806055422, 0
847, 4.4613418938163, -162.00252823078, 0
848, 6.9941818323572, -164.98686572937, 0
849, -38.702598777029, -190.08137293354, 0
850, -37.310660179809, -186.49214249845, 0
851, -8.0567164164297, -147.20071594176, 0
852, 9.8350409581405, -147.19832755116, 0
853, 7.2345590558448, -144.3515282593, 0
854, -33.40487426403, -185.83240961129, 0
855, 3.3113638024917, -155.2728331431, 0
856, -28.326040480462, -191.91113706793, 0
857, 12.363006520565, -150.19576135872, 0
858, 17.273450499399, -166.61890320108, 0
859, 13.399358432502, -167.29878241831, 0
860, 12.054755411442, -171.00770175223, 0
861, 9.5268292474795, -167.9851469919, 0
862, 8.1777706509741, -171.69660705243, 0
863, 5.6449361614484, -168.71042883144, 0
864, -20.347882831569, -180.12188472749, 0
865, -15.266066270908, -186.18288554384, 0
866, -13.90671380721, -182.48281516465, 0
867, 19.476125990458, -190.52888141236, 0
868, 20.834842621981, -186.81285413117, 0
869, -10.193852740658, -192.23428575825, 0
870, 14.586879370937, -174.03196559574, 0
871, 6.8337440547832, -175.41028257424, 0
872, -26.227969483437, -157.00331641841, 0
873, 19.321634704583, -200.9886291411, 0
874, 19.009745750459, -211.6232272613, 0
875, 15.1719488095, -212.12930102126, 0
876, -19.351150040055, -197.30777105052, 0
877, -2.4231064953606, -190.88008253379, 0
878, 35.220339563532, -177.31271790436, 0
879, 39.074899839915, -176.61532123428, 0
880, 27.426505979924, -178.70084841479, 0
881, 0.28308464161487, -183.48699626856, 0
882, 16.939274453548, -187.50310329392, 0
883, 13.062618245155, -188.17381737481, 0
884, -34.566270445017, -179.14813850643, 0
885, -25.778371123091, -205.37998019257, 0
886, -23.314388345546, -208.46664383281, 0
887, 11.581212395632, -202.29805556365, 0
888, -0.069505583525949, -204.34391624574, 0
889, -31.848494975335, -171.71082631738, 0
890, -11.353019285961, -185.51207498153, 0
891, 3.6354053155704, -213.99826879807, 0
892, 7.5193287997617, -213.31699601679, 0
893, 6.5278704448012, -217.2345975715, 0
894, 12.217075215904, -160.57420718317, 0
895, -7.834494399542, -205.72062559353, 0
896, -39.463372237508, -162.293713129, 0
897, -38.089386022106, -158.70325256414, 0
898, -5.9031469573566, -170.79182180818, 0
899, -19.522187123624, -207.76242459915, 0
900, -30.487825972994, -167.99326788426, 0
901, -14.742788751588, -214.17850959166, 0
902, -21.883520968796, -194.27451437821, 0
903, 16.379452599908, -139.20630083549, 0
904, 20.614260977745, -138.20912818437, 0
905, 14.022496539918, -135.73144895763, 0
906, 39.063170220393, -187.28565761445, 0
907, 37.76701945088, -190.94702872531, 0
908, 8.8763712324612, -209.69360703899, 0
909, 28.439834167967, -195.89874551455, 0
910, 31.163019799257, -188.46727762511, 0
911, -42.189546289317, -170.0397543885, 0
912, 24.884371710924, -175.6810636625, 0
913, 6.5095697447403, -196.23980944343, 0
914, 35.365824843512, -166.89662159129, 0
915, 37.909785062386, -169.92533344126, 0
916, -10.378762507427, -202.68808354142, 0
917, 18.303391933294, -183.78439141173, 0
918, -2.2333777476811, -180.47760811183, 0
919, 10.544569204535, -185.14029282031, 0
920, 26.386543565856, -161.54175586216, 0
921, -34.194843353509, -158.21230651346, 0
922, -36.59012761418, -154.9394675749, 0
923, -38.797551184665, -151.61813177182, 0
924, -2.6027653617015, -201.31460833784, 0
925, 37.878207014185, -159.62172144477, 0
926, 40.620469102948, -162.49111648448, 0
927, -25.786695870109, -194.95180330489, 0
928, 27.728878724403, -157.8301618495, 0
929, 10.872505691704, -164.27434684657, 0
930, 26.229776178285, -171.97527633455, 0
931, -6.6925029752045, -143.64910118359, 0
932, 33.733738881161, -191.52495859846, 0
933, 36.483888167782, -194.6567445638, 0
934, 38.972894664268, -197.68858608354, 0
935, 34.883963099284, -198.19556677283, 0
936, 39.379490872157, -166.19288147947, 0
937, 41.873376135757, -169.27171419499, 0
938, 21.450357962309, -145.118789904, 0
939, -12.521739911508, -178.80839935777, 0
940, -29.312535363049, -174.73710280019, 0
941, -8.219906362442, -157.47921041429, 0
942, -26.964038771778, -188.20822978792, 0
943, 41.851460482434, -158.41334393547, 0
944, 21.302647976915, -155.51309204676, 0
945, 32.374234848833, -195.22834258518, 0
946, -16.450685582567, -179.46235806634, 0
947, 22.848391266198, -141.69459170379, 0
948, -33.204423474477, -175.42810564708, 0
949, -30.863885198034, -188.87198189592, 0
950, -3.5830561956747, -184.16804420581, 0
951, -20.753270128378, -142.4811485711, 0
952, 28.768583426717, -174.9935629657, 0
953, -9.5541066878482, -161.16226098262, 0
954, -3.9556745057335, -205.02648588857, 0
955, 25.183259808818, -154.82277843031, 0
956, -4.9305292967318, -187.86061787164, 0
957, 32.664546037752, -174.30622518826, 0
958, 4.3096483432878, -172.40714072562, 0
959, -7.0512246181871, -164.14389884363, 0
960, -5.3094921338557, -208.74487890808, 0
961, 9.1935893843842, -188.8379705636, 0
962, 3.1269069273019, -165.71482908071, 0
963, -17.046378610536, -152.19530543507, 0
964, -8.8264876321804, -188.53599041447, 0
965, -6.6530067238965, -212.3845670656, 0
966, 36.550358099635, -173.61367246823, 0
967, -32.026569981442, -182.14660070826, 0
968, 11.723413220583, -191.87266160368, 0
969, 32.930542375026, -153.45498608081, 0
970, 36.985748972542, -152.84630175242, 0
971, 34.072870865399, -149.64468033373, 0
972, 29.060046479831, -154.14002259988, 0
973, 10.377122862183, -195.56448542466, 0
974, 40.606419503795, -173.00552392596, 0
975, 43.010920152476, -176.03001873221, 0
976, -18.379380613392, -155.84691743387, 0
977, 12.912601321465, -198.60674374577, 0
978, -35.939571554275, -182.82643569541, 0
979, 15.458308979842, -201.63800624123, 0
980, -8.3782966824701, -167.80706660337, 0
981, -41.149982022478, -187.0399245849, 0
982, -39.743425812005, -183.51205112709, 0
983, -44.044046275002, -183.90167214276, 0
984, 1.9524970054154, -159.02602987508, 0
985, -23.738811275477, -139.82765617112, 0
986, 0.76238810089373, -152.40959225683, 0
987, 2.0780745755561, -148.77666701894, 0
988, 9.7324549988903, -137.12221001088, 0
989, 14.098073376115, -205.32852103658, 0
990, 5.9496000113014, -147.99439410585, 0
991, -8.1371195682295, -216.37254253309, 0
992, 12.731611865872, -209.04707510485, 0
993, -12.237741278441, -168.48469187128, 0
994, -20.099401318159, -169.75335917814, 0
995, 11.348012729727, -212.65125314493, 0
996, 13.292462944528, -215.66078160096, 0
997, -16.158920885509, -169.13662538313, 0
998, -21.218021226748, -163.07809903341, 0
999, 4.6717695873031, -141.50984358333, 0
1000, -20.69855720951, -211.34827754982, 0
1001, -24.703906095872, -212.71924191486, 0
1002, 41.985782754096, -190.52047065714, 0
1003, -4.1559666544827, -136.40800671839, 0
1004, 0.30928697315493, -126.73090048705, 0
1005, -22.215378744065, -156.46798973129, 0
1006, -44.588440200555, -165.53115538557, 0
1007, -24.777768470686, -153.4527147556, 0
1008, -17.083311540823, -132.64044343168, 0
1009, -40.211431169263, -193.73122775646, 0
1010, -32.734520557082, -154.57608590863, 0
1011, 32.515601475432, -205.88015320099, 0
1012, 41.58832440849, -179.96473276072, 0
1013, -28.70362224922, -143.98707211118, 0
1014, 16.994281323049, -215.26474177052, 0
1015, -34.552917564619, -199.94263923587, 0
1016, 8.5254778457737, -140.70785376259, 0
1017, 10.682635672191, -133.44659076745, 0
1018, 44.476720929906, -183.16628140281, 0
1019, -41.797959258273, -158.56226885631, 0
1020, 13.679558815171, -131.38469208564, 0
1021, -33.207669054767, -206.57351933784, 0
1022, -26.947832204288, -137.93730562011, 0
1023, -23.700446134412, -136.06359869088, 0
1024, -45.432565848129, -176.08565228961, 0
1025, -18.067578862075, -217.10929328161, 0
1026, 0.15564631967471, -220.71012990562, 0
1027, -32.488370416756, -142.76186781528, 0
1028, 20.612660327713, -134.07224795497, 0
1029, 23.857428679161, -135.87832563763, 0
1030, -7.3962608752526, -220.22069088647, 0
1031, -10.890526696258, -219.34873270567, 0
1032, -13.575374068671, -135.07871941694, 0
1033, -28.747882750056, -154.05741133893, 0
1034, -34.96356970498, -151.54749019701, 0
1035, 45.540167549403, -168.94485371599, 0
1036, -3.8331792924895, -128.09421348155, 0
1037, -1.6225177664868, -119.7960848363, 0
1038, 31.51837743753, -146.65256484366, 0
1039, 29.907279535105, -140.21704917645, 0
1040, 32.534622565587, -142.94434456743, 0
1041, -36.955592633093, -148.40075547319, 0
1042, -45.904065164525, -169.03204201524, 0
1043, 44.062546095446, -161.67697470333, 0
1044, 37.833496559049, -201.02314692857, 0
1045, 37.643340756436, -148.8077438468, 0
1046, -26.962128840806, -208.97216526374, 0
1047, 0.50996678171773, -121.79239826984, 0
1048, -31.986624163759, -203.03960751776, 0
1049, 7.4507297602651, -220.72030586859, 0
1050, 24.84710781109, -213.98272187821, 0
1051, -37.963235219276, -200.4774056314, 0
1052, -41.762736002723, -180.79721084548, 0
1053, 2.1380439777751, -217.38041350037, 0
1054, 9.9297781781366, -215.60900729277, 0
1055, -29.458839130894, -205.96209834666, 0
1056, -44.482757258419, -187.54023041547, 0
1057, 17.81020880186, -136.0842398985, 0
1058, -33.223476638949, -148.45851878516, 0
1059, -11.748512212564, -216.23282107003, 0
1060, 46.289685965977, -176.41788805251, 0
1061, -1.8706427742808, -217.76605377113, 0
1062, -17.250508352892, -135.75260934978, 0
1063, -18.358423134611, -213.69849702874, 0
1064, 26.336707785065, -141.16962926091, 0
1065, 39.895952253994, -151.2209760797, 0
1066, 30.742623302858, -209.36350326076, 0
1067, 33.072363142977, -201.71366669798, 0
1068, 15.04071675753, -218.61837534734, 0
1069, -0.38380727714201, -124.32581622671, 0
1070, -1.0659335264542, 9.415435837048, 0
1071, -0.89645364413839, -116.7983659884, 0
1072, -42.713302672948, -173.97839618206, 0
1073, -7.6569691408899, -138.0047504535, 0
1074, 7.6000461948248, -130.6599701652, 0
1075, -36.783865498741, -196.45885935942, 0
1076, -28.171497344572, -212.05744107673, 0
1077, -26.66063495835, -140.9666711309, 0
1078, 18.440241668587, -217.97756831142, 0
1079, 38.489519597952, -156.49301500811, 0
1080, -4.0307057818829, -130.65867149666, 0
1081, -5.0592536981986, -133.51675232092, 0
1082, -1.1952382776593, -113.29534381097, 0
1083, -31.812727861668, -145.68060465994, 0
1084, -5.3453523675751, -218.07144026286, 0
1085, 24.037734076774, -138.86809527674, 0
1086, -10.020146986288, -135.90801913576, 0
1087, 1.6703703423517, 9.702512431891, 0
1088, 41.296476241584, -203.11816667208, 0
1089, -41.296476244774, -203.11816667024, 0
1090, -5.0000000000044, -118.9473671788, 0
1091, 5, -118.94736717878, 0
1092, -11.028437918021, -126.26936504194, 0
1093, 11.02843791829, -126.26936504218, 0
1094, -5.0000000000043, -115.00863980033, 0
1095, 5, -115.00863980031, 0
1096, 43.39745782995, -199.75285147617, 0
1097, -43.397457831624, -199.75285147517, 0
1098, -5.0000000000041, -111.06991242186, 0
1099, 5, -111.06991242184, 0
1100, 38.935130642116, -206.30623279812, 0
1101, -38.935130643386, -206.30623280071, 0
1102, -4.9563348535947, -107.19898872386, 0
1103, 5, -107.13118504337, 0
1104, 18.000009533091, 10, 0
1105, -17.999990466909, 10, 0
1106, -17.999990466909, -10, 0
1107, 18.000009533091, -10, 0
1108, -17.15296825328, -6.3666140888556, 0
1109, -17.152965185971, 6.3664538408481, 0
1110, 15.591579708452, -7.0338142310034, 0
1111, 15.590589941649, 7.0332063450086, 0
1112, 17.246380951711, -5.6367342281215, 0
1113, 17.246263731056, 5.6345991561703, 0
1114, -9.3862267596914, -0.33145616949998, 0
1115, 15.1200110493, 4.7938198545462, 0
1116, 17.103992924754, 3.1712586319924, 0
1117, 15.129238935927, -4.8482159762877, 0
1118, -15.192892760941, 6.7988554890712, 0
1119, -15.814131273339, 4.8102589700657, 0
1120, -15.193298183805, -6.7988436892579, 0
1121, -15.771937360684, -4.7791481551726, 0
1122, -14.607853202055, 11.507424647789, 0
1123, -14.609070586251, -11.506544977693, 0
1124, 14.563384364764, 2.2172446785045, 0
1125, 14.174830261575, -9.9938010693438, 0
1126, 14.174723549196, 9.9940463029955, 0
1127, -13.572299029448, -5.2279071265057, 0
1128, -13.613118184653, 5.2886831735265, 0
1129, -17.914539505529, -4.3860549761776, 0
1130, -16.483473665702, -2.5874406351502, 0
1131, -14.50155243117, 3.0922813974843, 0
1132, -17.840361838269, 4.424246282666, 0
1133, 17.147550898235, -3.2532166846937, 0
1134, 13.530230943856, -6.3818022868671, 0
1135, 13.546872173057, 6.5114856053376, 0
1136, -13.117290924062, -7.8470036402061, 0
1137, -13.12173147443, 7.8564284196409, 0
1138, 12.612466823411, -3.8085562992348, 0
1139, -18.881092332743, -2.1861043650909, 0
1140, 14.071938473166, -12.138659331155, 0
1141, 14.07114715113, 12.13730339029, 0
1142, 12.103711187848, -10.964170742361, 0
1143, 11.923897591286, 10.784393542904, 0
1144, -17.258628697257, 0.10886316313997, 0
1145, 19.381711864569, -4.33994895677, 0
1146, 19.42253561331, -1.5587490689024, 0
1147, 19.526595205969, 4.6474408536347, 0
1148, -14.876250665715, -0.67352725538105, 0
1149, -20.441697041466, -6.8071445479064, 0
1150, -20.439676363639, 12.741551736675, 0
1151, -20.318181523588, 7.0930923139178, 0
1152, -20.423271550585, -13.036235801845, 0
1153, -10.221088599226, 13.767474624713, 0
1154, -9.4365093037441, -11.792904430654, 0
1155, 18.753423067494, 13.458594592903, 0
1156, 19.416309415399, -13.439482287174, 0
1157, -15.38690719528, 13.521452631583, 0
1158, -15.404590197483, -13.556734313981, 0
1159, -19.962388919924, 0.1587050563763, 0
1160, -11.136160992507, 5.8622713508392, 0
1161, -11.123476307075, -5.8483212427403, 0
1162, 8.9062501330996, 0.14778190537581, 0
1163, -12.741904345709, -12.903569060497, 0
1164, 17.082294447382, -14.215476763519, 0
1165, 12.029143023752, 13.645848436672, 0
1166, 11.894542624819, -13.538118118757, 0
1167, 16.914032283896, 14.198178743879, 0
1168, 21.996322917302, 11.956893532593, 0
1169, 21.740969252606, -8.0761169275653, 0
1170, 21.844795762657, -12.001996712547, 0
1171, 21.986484662147, 8.1143843188345, 0
1172, -10.347069112721, 8.5244762317996, 0
1173, -11.812752176083, -3.1799679805382, 0
1174, 9.4551227078831, -8.2162267660901, 0
1175, 16.688188463288, -0.23980377938823, 0
1176, 9.4247062297071, 8.1826981399388, 0
1177, 9.3100043348939, 4.2980984097903, 0
1178, 13.840844095168, -0.68924068293448, 0
1179, -18.561764133392, -14.619347711685, 0
1180, -18.510222241798, 14.548175699816, 0
1181, -19.978760720116, -4.5205575748555, 0
1182, 19.433058660319, 1.4908357886021, 0
1183, -10.122688470915, -8.6608920090558, 0
1184, 9.1543173959897, 11.960235713586, 0
1185, 22.123207317912, -0.012381621586453, 0
1186, 9.1647423183874, -11.906490574145, 0
1187, -22.515547833784, 3.6780488078147, 0
1188, -8.8192120588159, -3.9329068870619, 0
1189, 9.1420347981188, -4.3666709495706, 0
1190, -21.794291344301, -9.9287161159964, 0
1191, -21.620028448475, 10.759780671135, 0
1192, -12.355027394595, -10.443571614943, 0
1193, -12.487311954866, 10.209696330423, 0
1194, -12.64677007409, 13.091170931073, 0
1195, -10.310622939493, -15.240288324393, 0
1196, -9.1772117678534, -122.09207935093, 0
1197, 9.1772117678451, -122.09207935091, 0
1198, -9.134783907812, 3.500458593103, 0
1199, 21.903652342194, -14.927636493602, 0
1200, 21.960626669777, 2.9296075515876, 0
1201, 21.855046944931, 14.825119103854, 0
1202, 21.923022964062, -2.935984000806, 0
1203, -14.208404912813, -3.002935609795, 0
1204, -12.224598143721, -0.54941211104781, 0
1205, -8.4448729385305, -119.36595274722, 0
1206, 8.4448729385269, -119.3659527472, 0
1207, 21.791396706674, 5.7156741668442, 0
1208, 11.819991734105, 1.4385293730871, 0
1209, 21.482158466995, -5.6171853019065, 0
1210, -16.611966593116, 2.6269352965355, 0
1211, -9.9832893521653, 11.204433827522, 0
1212, 12.462067510006, -8.2470367506286, 0
1213, 12.395338229342, 8.3117509010333, 0
1214, 14.318305553721, -14.533698316634, 0
1215, -12.026059662623, 3.6472188143534, 0
1216, -21.290843206851, -15.50115871847, 0
1217, 14.585363813545, 14.498709544083, 0
1218, -18.761582369361, 2.2556676518663, 0
1219, -21.491989244098, -2.2956241474671, 0
1220, 9.1557667310268, -15.198599170034, 0
1221, -21.251772349763, 15.456674514736, 0
1222, -14.883499708356, -8.499172560038, 0
1223, -14.883504517389, 8.4991625636702, 0
1224, -11.770773786752, -123.27907064956, 0
1225, 11.770773786619, -123.27907064954, 0
1226, 9.5481575311932, 15.116613305179, 0
1227, -16.492800167254, -15.655176795685, 0
1228, -13.739983529988, -15.071153698911, 0
1229, -17.226748172925, -13.387837611312, 0
1230, -17.164222302639, 13.458088449604, 0
1231, -16.526309589987, 15.604161513152, 0
1232, -13.927040150313, 15.257127058014, 0
1233, 19.458899805883, -6.619552277605, 0
1234, 18.772506716409, 6.6153879591704, 0
1235, -22.373510737191, -4.923128997908, 0
1236, -22.484943649907, 0.61194687221064, 0
1237, -18.755623992123, 5.9967515523673, 0
1238, -18.79772564429, -5.9773616742553, 0
1239, 14.346312698058, -8.1360462351113, 0
1240, 14.336075791929, 8.1748531984178, 0
1241, 15.083657843206, -2.5678066845078, 0
1242, -13.444604885613, 1.3606034089469, 0
1243, 19.054966999055, -15.886400988632, 0
1244, 11.411376344738, -1.5390695958308, 0
1245, 15.833745828788, -12.716382296461, 0
1246, 15.827184122766, 12.738369345278, 0
1247, -8.5928171100448, -6.5244436409946, 0
1248, -8.6163642612169, 6.5337547866226, 0
1249, 12.541773820961, 4.2308654331754, 0
1250, -20.249150202793, 4.5610814411259, 0
1251, -11.482371764112, 15.838267024809, 0
1252, 18.90307758177, 15.403161919147, 0
1253, -22.439440676093, -7.7804610832541, 0
1254, 20.387709578567, 6.7746001321487, 0
1255, 8.0154110926187, -114.92714481075, 0
1256, -8.0154110926315, -114.92714481075, 0
1257, -11.329074897394, 1.5401347320599, 0
1258, -8.5287865476183, 15.379597216119, 0
1259, 11.443738957592, 6.3069796978551, 0
1260, 20.483364039314, 13.114026692082, 0
1261, 22.208941253816, -10.019528410028, 0
1262, 22.308201894862, 10.017819462857, 0
1263, 11.838463685068, -15.960030566388, 0
1264, 15.795070016275, -16.371564938687, 0
1265, -22.613017960789, 6.3492119627095, 0
1266, -22.63611789049, -13.551848838557, 0
1267, -15.4955429493, 1.0702943139907, 0
1268, 11.440384556655, -6.2040586104782, 0
1269, -22.65525531546, 12.864076746906, 0
1270, -21.588549436839, -11.728132862763, 0
1271, -21.91567457329, 8.6451723570952, 0
1272, 0, 15.962278106509, 0
1273, -20.836154968435, 2.2180789803534, 0
1274, -14.117378938698, -9.8443723452465, 0
1275, -14.136570182762, 9.7793879247605, 0
1276, -15.152553520622, -123.99801301292, 0
1277, 15.15255352058, -123.99801301306, 0
1278, 8.0009816253787, -103.05904479719, 0
1279, -8.0009816253808, -103.0590447972, 0
1280, 15.992696079324, 16.151066976279, 0
1281, -8.0015018456055, -99.098946748499, 0
1282, 8.001501845605, -99.098946748491, 0
1283, 8.0017615555962, -107.01931950031, 0
1284, -8.0017615556001, -107.01931950032, 0
1285, -8.0025606935492, -95.138112363185, 0
1286, 8.002560693549, -95.138112363178, 0
1287, 8.0028621080358, -110.98018332803, 0
1288, -8.0028621080401, -110.98018332804, 0
1289, -8.0138623156821, -91.189884857098, 0
1290, 8.013862315689, -91.189884857098, 0
1291, -8.146632899802, 12.876673305035, 0
******* E L E M E N T S *************
*ELEMENT, type=CPS3, ELSET=Surface1
1, 787, 1047, 4
2, 117, 1002, 116
3, 788, 796, 533
4, 531, 936, 926
5, 509, 906, 791
6, 31, 818, 30
7, 33, 817, 32
8, 35, 816, 34
9, 37, 815, 36
10, 39, 814, 38
11, 41, 813, 40
12, 43, 812, 42
13, 45, 811, 44
14, 47, 810, 46
15, 49, 809, 48
16, 51, 808, 50
17, 53, 807, 52
18, 55, 806, 54
19, 57, 805, 56
20, 59, 804, 58
21, 820, 1023, 502
22, 511, 1024, 794
23, 531, 937, 936
24, 122, 1011, 121
25, 515, 974, 937
26, 146, 1009, 145
27, 522, 933, 907
28, 94, 787, 4
29, 985, 1023, 820
30, 797, 822, 523
31, 167, 788, 533
32, 138, 1001, 524
33, 63, 825, 62
34, 65, 826, 64
35, 67, 827, 66
36, 69, 829, 68
37, 71, 828, 70
38, 73, 830, 72
39, 75, 831, 74
40, 77, 832, 76
41, 79, 833, 78
42, 81, 834, 80
43, 83, 835, 82
44, 85, 836, 84
45, 87, 837, 86
46, 89, 838, 88
47, 91, 839, 90
48, 523, 821, 797
49, 535, 1004, 823
50, 535, 1036, 168
51, 169, 535, 168
52, 794, 1052, 511
53, 507, 896, 790
54, 139, 1001, 138
55, 819, 1082, 29
56, 790, 1006, 507
57, 823, 1036, 535
58, 791, 1018, 509
59, 149, 983, 148
60, 818, 839, 30
61, 817, 838, 32
62, 816, 837, 34
63, 815, 836, 36
64, 814, 835, 38
65, 813, 834, 40
66, 812, 833, 42
67, 811, 832, 44
68, 810, 831, 46
69, 809, 830, 48
70, 808, 828, 50
71, 807, 829, 52
72, 806, 827, 54
73, 29, 839, 819
74, 31, 838, 818
75, 33, 837, 817
76, 35, 836, 816
77, 37, 835, 815
78, 805, 826, 56
79, 39, 834, 814
80, 41, 833, 813
81, 43, 832, 812
82, 45, 831, 811
83, 804, 825, 58
84, 47, 830, 810
85, 49, 828, 809
86, 51, 829, 808
87, 53, 827, 807
88, 55, 826, 806
89, 57, 825, 805
90, 511, 983, 149
91, 522, 934, 933
92, 59, 1070, 804
93, 116, 1002, 509
94, 522, 1002, 117
95, 785, 822, 740
96, 27, 1037, 1
97, 893, 1054, 532
98, 1044, 1067, 935
99, 532, 1049, 893
100, 911, 1006, 790
101, 905, 1020, 520
102, 512, 1067, 1044
103, 4, 1047, 754
104, 515, 975, 974
105, 911, 1042, 1006
106, 805, 825, 63
107, 62, 825, 804
108, 806, 826, 65
109, 64, 826, 805
110, 807, 827, 67
111, 66, 827, 806
112, 808, 829, 69
113, 68, 829, 807
114, 70, 828, 808
115, 809, 828, 71
116, 72, 830, 809
117, 810, 830, 73
118, 811, 831, 75
119, 74, 831, 810
120, 812, 832, 77
121, 76, 832, 811
122, 78, 833, 812
123, 813, 833, 79
124, 80, 834, 813
125, 814, 834, 81
126, 82, 835, 814
127, 815, 835, 83
128, 84, 836, 815
129, 816, 836, 85
130, 86, 837, 816
131, 817, 837, 87
132, 88, 838, 817
133, 818, 838, 89
134, 819, 839, 91
135, 90, 839, 818
136, 740, 822, 797
137, 121, 1011, 512
138, 29, 1082, 28
139, 145, 1009, 504
140, 528, 1009, 146
141, 503, 874, 821
142, 122, 1066, 1011
143, 6, 788, 167
144, 907, 1002, 522
145, 5, 536, 95
146, 115, 1018, 114
147, 508, 1025, 901
148, 5, 1074, 536
149, 937, 1035, 515
150, 843, 1074, 1017
151, 525, 922, 897
152, 509, 1002, 906
153, 156, 1019, 155
154, 796, 1086, 1032
155, 519, 1004, 787
156, 108, 943, 107
157, 27, 1082, 1071
158, 1051, 1075, 1015
159, 4, 754, 93
160, 119, 934, 118
161, 118, 934, 522
162, 1017, 1074, 506
163, 507, 1019, 896
164, 788, 801, 796
165, 1017, 1020, 905
166, 1012, 1018, 791
167, 1025, 1063, 901
168, 517, 1080, 801
169, 926, 1043, 531
170, 530, 1012, 975
171, 796, 1032, 533
172, 897, 1019, 525
173, 158, 923, 157
174, 524, 1001, 1000
175, 530, 1018, 1012
176, 504, 1075, 1051
177, 696, 998, 629
178, 107, 943, 505
179, 896, 1019, 897
180, 801, 802, 796
181, 821, 1050, 503
182, 1028, 1029, 904
183, 1024, 1072, 794
184, 1032, 1086, 764
185, 157, 923, 525
186, 755, 823, 539
187, 1030, 1031, 991
188, 92, 824, 819
189, 531, 1035, 937
190, 841, 998, 696
191, 114, 1018, 530
192, 509, 1018, 115
193, 539, 823, 537
194, 768, 1048, 1015
195, 671, 1003, 543
196, 28, 1082, 27
197, 785, 1011, 822
198, 520, 1057, 905
199, 96, 506, 5
200, 525, 1019, 156
201, 155, 1019, 507
202, 671, 1073, 1003
203, 975, 1060, 530
204, 167, 533, 166
205, 1036, 1080, 517
206, 502, 1062, 820
207, 168, 1036, 517
208, 757, 984, 855
209, 750, 988, 905
210, 1010, 1033, 690
211, 823, 1004, 537
212, 1014, 1068, 996
213, 783, 1040, 1038
214, 853, 990, 578
215, 30, 839, 29
216, 32, 838, 31
217, 34, 837, 33
218, 36, 836, 35
219, 38, 835, 37
220, 40, 834, 39
221, 42, 833, 41
222, 44, 832, 43
223, 46, 831, 45
224, 48, 830, 47
225, 50, 828, 49
226, 52, 829, 51
227, 54, 827, 53
228, 56, 826, 55
229, 58, 825, 57
230, 506, 1074, 5
231, 934, 935, 933
232, 525, 923, 922
233, 503, 1014, 874
234, 537, 1004, 519
235, 505, 1079, 970
236, 855, 984, 553
237, 872, 1005, 696
238, 848, 962, 847
239, 714, 845, 713
240, 749, 1016, 750
241, 844, 845, 714
242, 1014, 1078, 1068
243, 671, 931, 842
244, 994, 997, 714
245, 786, 945, 935
246, 847, 962, 557
247, 872, 1007, 1005
248, 935, 945, 933
249, 541, 755, 539
250, 629, 998, 628
251, 970, 1065, 505
252, 1003, 1073, 802
253, 866, 890, 865
254, 725, 890, 866
255, 533, 1032, 1008
256, 971, 1045, 970
257, 852, 990, 853
258, 547, 931, 545
259, 578, 990, 987
260, 763, 764, 712
261, 855, 986, 762
262, 1046, 1055, 885
263, 840, 994, 628
264, 840, 997, 994
265, 679, 846, 636
266, 594, 851, 549
267, 1038, 1040, 518
268, 863, 962, 848
269, 845, 946, 713
270, 861, 863, 848
271, 511, 1052, 983
272, 986, 987, 762
273, 862, 958, 863
274, 846, 851, 636
275, 545, 931, 671
276, 549, 851, 547
277, 628, 998, 840
278, 851, 931, 547
279, 636, 851, 594
280, 663, 964, 869
281, 987, 990, 762
282, 842, 931, 846
283, 764, 842, 712
284, 852, 857, 733
285, 578, 999, 853
286, 848, 929, 861
287, 568, 871, 571
288, 847, 984, 757
289, 523, 1050, 821
290, 865, 890, 663
291, 693, 857, 852
292, 939, 946, 845
293, 1015, 1048, 527
294, 863, 958, 561
295, 861, 929, 859
296, 866, 946, 939
297, 675, 862, 860
298, 866, 939, 725
299, 533, 1008, 166
300, 860, 870, 675
301, 712, 846, 679
302, 661, 857, 693
303, 565, 871, 568
304, 988, 1017, 905
305, 1031, 1059, 991
306, 713, 946, 864
307, 571, 871, 675
308, 635, 636, 594
309, 890, 964, 663
310, 693, 852, 749
311, 1013, 1027, 529
312, 923, 1034, 922
313, 852, 853, 749
314, 906, 1002, 907
315, 545, 671, 543
316, 882, 917, 868
317, 882, 883, 678
318, 693, 749, 697
319, 675, 871, 862
320, 657, 949, 854
321, 715, 859, 858
322, 711, 855, 762
323, 793, 1033, 1010
324, 854, 949, 780
325, 883, 919, 678
326, 715, 858, 588
327, 715, 860, 859
328, 553, 986, 855
329, 640, 927, 856
330, 614, 864, 666
331, 678, 917, 882
332, 711, 762, 733
333, 715, 870, 860
334, 27, 1071, 1037
335, 710, 712, 679
336, 658, 682, 659
337, 782, 948, 884
338, 711, 733, 682
339, 666, 866, 865
340, 749, 750, 697
341, 710, 763, 712
342, 588, 858, 596
343, 859, 929, 662
344, 658, 659, 631
345, 616, 864, 614
346, 666, 865, 612
347, 757, 855, 711
348, 692, 711, 682
349, 630, 658, 631
350, 593, 869, 716
351, 675, 870, 575
352, 659, 857, 661
353, 860, 861, 859
354, 867, 868, 647
355, 871, 958, 862
356, 856, 927, 769
357, 619, 868, 598
358, 575, 870, 580
359, 600, 869, 593
360, 661, 693, 673
361, 649, 867, 647
362, 647, 868, 619
363, 604, 662, 630
364, 862, 863, 861
365, 582, 877, 577
366, 586, 715, 588
367, 658, 692, 682
368, 624, 714, 713
369, 604, 630, 605
370, 624, 713, 622
371, 630, 631, 605
372, 894, 929, 758
373, 718, 916, 895
374, 577, 877, 677
375, 623, 624, 622
376, 692, 757, 711
377, 662, 894, 630
378, 655, 872, 696
379, 860, 862, 861
380, 610, 663, 608
381, 612, 865, 610
382, 884, 948, 643
383, 889, 900, 626
384, 635, 641, 636
385, 867, 882, 868
386, 627, 628, 625
387, 758, 929, 848
388, 655, 696, 629
389, 942, 949, 657
390, 580, 870, 586
391, 596, 858, 604
392, 772, 773, 700
393, 738, 900, 889
394, 610, 865, 663
395, 858, 859, 662
396, 692, 894, 758
397, 622, 864, 616
398, 586, 588, 587
399, 658, 894, 692
400, 614, 666, 612
401, 895, 916, 633
402, 621, 622, 616
403, 902, 927, 640
404, 778, 856, 769
405, 608, 869, 600
406, 765, 927, 902
407, 701, 772, 700
408, 596, 604, 603
409, 717, 898, 656
410, 641, 679, 636
411, 586, 870, 715
412, 609, 610, 608
413, 700, 867, 649
414, 850, 854, 780
415, 731, 774, 761
416, 664, 700, 649
417, 663, 869, 608
418, 557, 984, 847
419, 569, 881, 566
420, 868, 917, 598
421, 623, 625, 624
422, 621, 623, 622
423, 799, 873, 741
424, 593, 716, 591
425, 611, 612, 610
426, 607, 608, 600
427, 798, 799, 741
428, 765, 876, 676
429, 591, 877, 582
430, 627, 629, 628
431, 773, 867, 700
432, 597, 880, 618
433, 571, 675, 575
434, 707, 765, 676
435, 695, 717, 656
436, 713, 864, 622
437, 637, 928, 920
438, 604, 858, 662
439, 664, 701, 700
440, 638, 888, 601
441, 682, 857, 659
442, 693, 697, 673
443, 758, 847, 757
444, 869, 964, 716
445, 604, 605, 603
446, 580, 586, 585
447, 773, 883, 882
448, 777, 778, 769
449, 798, 800, 799
450, 768, 769, 766
451, 632, 913, 735
452, 607, 609, 608
453, 573, 881, 569
454, 613, 614, 612
455, 779, 780, 778
456, 618, 880, 645
457, 920, 928, 721
458, 645, 771, 687
459, 854, 967, 657
460, 588, 596, 595
461, 147, 528, 146
462, 138, 524, 137
463, 143, 527, 142
464, 129, 532, 128
465, 157, 525, 156
466, 114, 530, 113
467, 121, 512, 120
468, 152, 526, 151
469, 124, 523, 123
470, 136, 508, 135
471, 141, 516, 140
472, 101, 510, 100
473, 162, 529, 161
474, 98, 520, 97
475, 104, 518, 103
476, 150, 511, 149
477, 112, 515, 111
478, 116, 509, 115
479, 145, 504, 144
480, 155, 507, 154
481, 107, 505, 106
482, 126, 503, 125
483, 160, 513, 159
484, 165, 502, 164
485, 133, 521, 132
486, 131, 514, 130
487, 110, 531, 109
488, 118, 522, 117
489, 80, 813, 79
490, 86, 816, 85
491, 74, 810, 73
492, 66, 806, 65
493, 64, 805, 63
494, 88, 817, 87
495, 90, 818, 89
496, 92, 819, 91
497, 82, 814, 81
498, 62, 804, 61
499, 68, 807, 67
500, 70, 808, 69
501, 76, 811, 75
502, 78, 812, 77
503, 72, 809, 71
504, 84, 815, 83
505, 1, 534, 169
506, 577, 677, 573
507, 669, 888, 638
508, 864, 946, 666
509, 609, 611, 610
510, 646, 647, 619
511, 611, 613, 612
512, 849, 850, 780
513, 707, 766, 765
514, 703, 728, 669
515, 874, 875, 800
516, 664, 873, 701
517, 632, 735, 639
518, 588, 595, 587
519, 856, 949, 942
520, 590, 591, 582
521, 648, 649, 647
522, 798, 874, 800
523, 716, 877, 591
524, 689, 738, 737
525, 782, 795, 794
526, 748, 782, 781
527, 738, 748, 747
528, 586, 587, 585
529, 768, 777, 769
530, 653, 718, 691
531, 652, 664, 649
532, 718, 720, 719
533, 797, 798, 741
534, 645, 880, 771
535, 690, 872, 655
536, 740, 741, 684
537, 733, 990, 852
538, 777, 779, 778
539, 592, 593, 591
540, 615, 616, 614
541, 662, 929, 894
542, 653, 916, 718
543, 708, 786, 785
544, 779, 849, 780
545, 677, 881, 573
546, 771, 878, 687
547, 856, 942, 640
548, 773, 882, 867
549, 630, 894, 658
550, 607, 876, 609
551, 695, 844, 717
552, 620, 621, 616
553, 626, 627, 625
554, 733, 857, 682
555, 782, 884, 795
556, 674, 676, 642
557, 646, 648, 647
558, 599, 600, 593
559, 728, 888, 669
560, 684, 873, 664
561, 706, 707, 676
562, 741, 873, 684
563, 703, 734, 728
564, 606, 607, 600
565, 765, 902, 876
566, 782, 794, 781
567, 767, 768, 766
568, 735, 887, 639
569, 800, 989, 799
570, 613, 615, 614
571, 738, 889, 748
572, 769, 927, 766
573, 665, 698, 617
574, 590, 592, 591
575, 821, 874, 798
576, 648, 652, 649
577, 718, 719, 691
578, 650, 721, 683
579, 652, 684, 664
580, 748, 781, 747
581, 596, 603, 602
582, 740, 797, 741
583, 797, 821, 798
584, 720, 756, 719
585, 721, 723, 722
586, 738, 747, 737
587, 654, 655, 629
588, 597, 598, 584
589, 702, 892, 891
590, 707, 767, 766
591, 589, 632, 601
592, 555, 953, 941
593, 708, 909, 786
594, 692, 758, 757
595, 668, 669, 638
596, 744, 745, 686
597, 618, 645, 644
598, 615, 620, 616
599, 706, 886, 885
600, 910, 932, 685
601, 659, 660, 631
602, 618, 619, 598
603, 702, 703, 669
604, 645, 687, 686
605, 620, 643, 621
606, 606, 653, 642
607, 674, 706, 676
608, 572, 573, 569
609, 632, 639, 638
610, 676, 876, 642
611, 639, 670, 668
612, 689, 900, 738
613, 696, 1005, 841
614, 592, 599, 593
615, 719, 784, 691
616, 576, 583, 581
617, 687, 746, 744
618, 644, 646, 619
619, 652, 708, 684
620, 758, 848, 847
621, 606, 642, 607
622, 706, 885, 707
623, 599, 606, 600
624, 718, 895, 720
625, 623, 626, 625
626, 568, 571, 570
627, 642, 876, 607
628, 611, 640, 613
629, 759, 803, 734
630, 653, 691, 674
631, 615, 657, 620
632, 687, 878, 746
633, 708, 740, 684
634, 896, 897, 736
635, 576, 577, 573
636, 708, 785, 740
637, 659, 661, 660
638, 646, 685, 648
639, 581, 582, 577
640, 589, 590, 582
641, 703, 759, 734
642, 653, 674, 642
643, 639, 887, 670
644, 567, 656, 563
645, 745, 932, 910
646, 575, 580, 579
647, 571, 575, 574
648, 654, 689, 688
649, 892, 893, 891
650, 580, 585, 584
651, 689, 737, 736
652, 592, 633, 599
653, 681, 739, 705
654, 668, 702, 669
655, 645, 686, 644
656, 579, 678, 574
657, 687, 744, 686
658, 639, 668, 638
659, 707, 885, 767
660, 688, 690, 655
661, 746, 791, 744
662, 597, 618, 598
663, 627, 654, 629
664, 702, 891, 703
665, 618, 644, 619
666, 878, 879, 746
667, 747, 790, 737
668, 632, 638, 601
669, 665, 699, 698
670, 93, 824, 92
671, 721, 722, 683
672, 589, 601, 590
673, 596, 602, 595
674, 581, 589, 582
675, 585, 597, 584
676, 906, 907, 745
677, 580, 584, 579
678, 723, 789, 722
679, 722, 743, 683
680, 576, 581, 577
681, 575, 579, 574
682, 562, 565, 564
683, 605, 637, 603
684, 941, 953, 729
685, 572, 576, 573
686, 626, 900, 627
687, 562, 563, 560
688, 587, 912, 585
689, 571, 574, 570
690, 568, 570, 569
691, 689, 736, 688
692, 650, 665, 617
693, 565, 568, 566
694, 570, 572, 569
695, 558, 561, 560
696, 602, 617, 595
697, 694, 695, 656
698, 737, 896, 736
699, 731, 761, 760
700, 568, 569, 566
701, 727, 775, 752
702, 654, 688, 655
703, 770, 890, 725
704, 602, 650, 617
705, 650, 683, 665
706, 703, 891, 759
707, 597, 912, 880
708, 724, 770, 725
709, 564, 567, 563
710, 558, 559, 556
711, 627, 900, 654
712, 875, 992, 800
713, 876, 902, 609
714, 897, 922, 921
715, 565, 566, 564
716, 567, 724, 694
717, 775, 783, 752
718, 609, 902, 611
719, 784, 899, 691
720, 567, 694, 656
721, 562, 564, 563
722, 654, 900, 689
723, 585, 912, 597
724, 691, 899, 674
725, 706, 899, 886
726, 846, 931, 851
727, 702, 908, 892
728, 744, 906, 745
729, 752, 753, 732
730, 561, 562, 560
731, 790, 896, 737
732, 650, 920, 721
733, 634, 729, 667
734, 590, 924, 592
735, 888, 924, 601
736, 756, 901, 719
737, 674, 899, 706
738, 729, 731, 730
739, 724, 725, 694
740, 554, 557, 556
741, 766, 927, 765
742, 719, 901, 784
743, 560, 898, 559
744, 670, 908, 668
745, 695, 845, 844
746, 745, 910, 686
747, 646, 910, 685
748, 589, 913, 632
749, 648, 909, 652
750, 914, 936, 915
751, 644, 910, 646
752, 558, 560, 559
753, 781, 911, 747
754, 601, 924, 590
755, 598, 917, 584
756, 652, 909, 708
757, 583, 913, 581
758, 611, 902, 640
759, 603, 920, 602
760, 606, 916, 653
761, 791, 906, 744
762, 731, 953, 774
763, 685, 909, 648
764, 550, 553, 552
765, 668, 908, 702
766, 881, 918, 566
767, 592, 924, 633
768, 599, 916, 606
769, 643, 948, 940
770, 925, 926, 743
771, 686, 910, 644
772, 721, 928, 723
773, 914, 915, 699
774, 557, 558, 556
775, 747, 911, 790
776, 581, 913, 589
777, 554, 555, 552
778, 633, 916, 599
779, 897, 921, 736
780, 637, 920, 603
781, 779, 1009, 849
782, 661, 673, 672
783, 800, 992, 989
784, 584, 917, 579
785, 698, 930, 617
786, 743, 936, 914
787, 665, 914, 699
788, 579, 917, 678
789, 761, 840, 760
790, 780, 949, 778
791, 595, 930, 587
792, 550, 552, 551
793, 563, 898, 560
794, 727, 752, 732
795, 743, 914, 683
796, 688, 921, 690
797, 683, 914, 665
798, 961, 968, 583
799, 656, 898, 563
800, 617, 930, 595
801, 602, 920, 650
802, 554, 556, 555
803, 566, 918, 564
804, 907, 933, 932
805, 678, 919, 574
806, 722, 925, 743
807, 564, 918, 567
808, 748, 948, 782
809, 574, 919, 570
810, 731, 760, 730
811, 570, 919, 572
812, 643, 940, 621
813, 936, 937, 915
814, 736, 921, 688
815, 789, 925, 722
816, 760, 841, 730
817, 626, 940, 889
818, 727, 732, 726
819, 553, 554, 552
820, 561, 962, 863
821, 907, 932, 745
822, 567, 918, 724
823, 587, 930, 912
824, 623, 940, 626
825, 548, 550, 549
826, 697, 709, 673
827, 640, 942, 613
828, 729, 730, 667
829, 615, 942, 657
830, 672, 726, 660
831, 842, 846, 712
832, 750, 905, 903
833, 672, 727, 726
834, 751, 793, 792
835, 725, 939, 694
836, 695, 939, 845
837, 550, 551, 549
838, 661, 672, 660
839, 926, 936, 743
840, 716, 956, 877
841, 621, 940, 623
842, 933, 945, 932
843, 694, 939, 695
844, 750, 1016, 988
845, 940, 948, 889
846, 551, 594, 549
847, 660, 944, 631
848, 880, 952, 771
849, 727, 938, 775
850, 631, 944, 605
851, 605, 944, 637
852, 613, 942, 615
853, 728, 960, 954
854, 546, 548, 547
855, 750, 903, 697
856, 742, 776, 704
857, 634, 667, 635
858, 918, 950, 724
859, 881, 950, 918
860, 548, 549, 547
861, 666, 946, 866
862, 726, 944, 660
863, 973, 977, 735
864, 751, 792, 742
865, 709, 938, 673
866, 673, 938, 672
867, 709, 947, 938
868, 925, 943, 926
869, 705, 751, 742
870, 728, 954, 888
871, 551, 634, 594
872, 952, 957, 771
873, 634, 635, 594
874, 672, 938, 727
875, 772, 968, 773
876, 909, 945, 786
877, 681, 705, 704
878, 680, 710, 679
879, 938, 947, 775
880, 555, 941, 552
881, 903, 904, 709
882, 634, 941, 729
883, 771, 957, 878
884, 778, 949, 856
885, 552, 941, 551
886, 932, 945, 685
887, 685, 945, 909
888, 875, 995, 992
889, 705, 742, 704
890, 677, 950, 881
891, 565, 958, 871
892, 546, 547, 545
893, 562, 958, 565
894, 697, 903, 709
895, 556, 959, 555
896, 889, 948, 748
897, 576, 961, 583
898, 544, 546, 545
899, 681, 704, 680
900, 883, 961, 919
901, 724, 950, 770
902, 544, 578, 546
903, 558, 962, 561
904, 528, 981, 849
905, 714, 997, 844
906, 641, 681, 680
907, 954, 960, 895
908, 633, 954, 895
909, 854, 978, 967
910, 904, 947, 709
911, 924, 954, 633
912, 657, 967, 620
913, 677, 956, 950
914, 551, 941, 634
915, 919, 961, 572
916, 883, 968, 961
917, 930, 952, 912
918, 698, 952, 930
919, 944, 955, 637
920, 957, 966, 878
921, 888, 954, 924
922, 729, 953, 731
923, 637, 955, 928
924, 641, 680, 679
925, 878, 966, 879
926, 950, 956, 770
927, 912, 952, 880
928, 544, 545, 543
929, 698, 957, 952
930, 555, 959, 953
931, 877, 956, 677
932, 542, 544, 543
933, 641, 963, 681
934, 723, 972, 969
935, 734, 960, 728
936, 913, 973, 735
937, 726, 955, 944
938, 734, 965, 960
939, 732, 955, 726
940, 681, 963, 739
941, 716, 964, 956
942, 772, 977, 973
943, 561, 958, 562
944, 710, 820, 763
945, 953, 959, 774
946, 955, 972, 928
947, 799, 979, 873
948, 699, 957, 698
949, 559, 959, 556
950, 967, 978, 884
951, 572, 961, 576
952, 803, 965, 734
953, 635, 963, 641
954, 969, 970, 789
955, 895, 960, 720
956, 960, 965, 720
957, 542, 543, 541
958, 557, 962, 558
959, 776, 951, 704
960, 966, 974, 879
961, 770, 964, 890
962, 841, 976, 730
963, 699, 966, 957
964, 969, 972, 753
965, 624, 994, 714
966, 732, 972, 955
967, 720, 965, 756
968, 2, 1070, 59
969, 717, 980, 898
970, 969, 971, 970
971, 519, 787, 94
972, 850, 982, 978
973, 974, 975, 879
974, 643, 967, 884
975, 680, 951, 710
976, 628, 994, 625
977, 915, 966, 699
978, 620, 967, 643
979, 928, 972, 723
980, 704, 951, 680
981, 773, 968, 883
982, 667, 963, 635
983, 554, 984, 557
984, 723, 969, 789
985, 550, 986, 553
986, 540, 542, 541
987, 772, 973, 968
988, 753, 972, 732
989, 981, 983, 982
990, 956, 964, 770
991, 844, 993, 717
992, 60, 1070, 2
993, 963, 976, 739
994, 583, 973, 913
995, 779, 1075, 1009
996, 667, 976, 963
997, 915, 974, 966
998, 978, 982, 795
999, 540, 651, 542
1000, 937, 974, 915
1001, 753, 971, 969
1002, 532, 1054, 996
1003, 844, 997, 993
1004, 850, 978, 854
1005, 559, 980, 959
1006, 578, 987, 546
1007, 730, 976, 667
1008, 710, 951, 820
1009, 959, 980, 774
1010, 701, 977, 772
1011, 154, 1006, 153
1012, 507, 1006, 154
1013, 735, 977, 887
1014, 840, 998, 760
1015, 717, 993, 980
1016, 968, 973, 583
1017, 977, 979, 887
1018, 701, 979, 977
1019, 540, 843, 651
1020, 849, 981, 850
1021, 873, 979, 701
1022, 884, 978, 795
1023, 898, 980, 559
1024, 553, 984, 554
1025, 548, 986, 550
1026, 546, 987, 548
1027, 784, 1000, 899
1028, 95, 519, 94
1029, 843, 988, 651
1030, 875, 996, 995
1031, 1045, 1065, 970
1032, 762, 990, 733
1033, 799, 989, 979
1034, 548, 987, 986
1035, 874, 1014, 875
1036, 1007, 1033, 751
1037, 544, 999, 578
1038, 887, 989, 670
1039, 989, 992, 670
1040, 651, 1016, 999
1041, 540, 541, 539
1042, 670, 992, 908
1043, 980, 993, 774
1044, 774, 993, 761
1045, 776, 985, 951
1046, 705, 1007, 751
1047, 981, 982, 850
1048, 625, 994, 624
1049, 1000, 1001, 886
1050, 803, 991, 965
1051, 908, 995, 892
1052, 992, 995, 908
1053, 993, 997, 761
1054, 951, 985, 820
1055, 965, 991, 756
1056, 651, 999, 542
1057, 543, 1003, 541
1058, 922, 1034, 1010
1059, 764, 1073, 842
1060, 542, 999, 544
1061, 761, 997, 840
1062, 979, 989, 887
1063, 921, 1010, 690
1064, 746, 1012, 791
1065, 760, 998, 841
1066, 996, 1068, 532
1067, 541, 1003, 755
1068, 975, 1012, 879
1069, 516, 1055, 1046
1070, 742, 1013, 776
1071, 538, 843, 540
1072, 899, 1000, 886
1073, 853, 1016, 749
1074, 999, 1016, 853
1075, 841, 1005, 976
1076, 849, 1009, 528
1077, 534, 535, 169
1078, 911, 1072, 526
1079, 983, 1056, 148
1080, 872, 1033, 1007
1081, 108, 1043, 943
1082, 739, 1007, 705
1083, 971, 1038, 518
1084, 1005, 1007, 739
1085, 526, 1042, 911
1086, 822, 1066, 523
1087, 976, 1005, 739
1088, 514, 1053, 893
1089, 1022, 1023, 985
1090, 1009, 1075, 504
1091, 783, 1038, 752
1092, 690, 1033, 872
1093, 1041, 1058, 1034
1094, 843, 1017, 988
1095, 767, 1048, 768
1096, 922, 1010, 921
1097, 166, 1008, 165
1098, 165, 1008, 502
1099, 538, 540, 539
1100, 879, 1012, 746
1101, 754, 824, 93
1102, 792, 1013, 742
1103, 158, 1041, 923
1104, 1029, 1085, 904
1105, 886, 1046, 885
1106, 139, 1076, 1001
1107, 753, 1038, 971
1108, 1013, 1083, 1027
1109, 119, 1044, 934
1110, 768, 1015, 777
1111, 983, 1052, 982
1112, 875, 1014, 996
1113, 893, 1053, 891
1114, 892, 1054, 893
1115, 1011, 1066, 822
1116, 1026, 1053, 514
1117, 764, 1086, 1073
1118, 934, 1044, 935
1119, 901, 1059, 508
1120, 904, 1057, 1028
1121, 935, 1067, 786
1122, 988, 1016, 651
1123, 795, 1052, 794
1124, 763, 1032, 764
1125, 520, 1020, 97
1126, 97, 1020, 96
1127, 162, 1022, 529
1128, 164, 1023, 163
1129, 163, 1022, 162
1130, 502, 1023, 164
1131, 98, 1028, 520
1132, 510, 1029, 100
1133, 134, 1030, 133
1134, 100, 1029, 99
1135, 133, 1030, 521
1136, 150, 1024, 511
1137, 135, 1031, 134
1138, 508, 1031, 135
1139, 524, 1025, 137
1140, 529, 1027, 161
1141, 137, 1025, 136
1142, 521, 1026, 132
1143, 132, 1026, 131
1144, 131, 1026, 514
1145, 141, 1021, 516
1146, 527, 1021, 142
1147, 161, 1027, 160
1148, 142, 1021, 141
1149, 136, 1025, 508
1150, 160, 1027, 513
1151, 151, 1024, 150
1152, 526, 1024, 151
1153, 99, 1028, 98
1154, 1032, 1062, 1008
1155, 1026, 1061, 1053
1156, 905, 1057, 903
1157, 893, 1049, 514
1158, 947, 1064, 775
1159, 1, 1037, 534
1160, 515, 1035, 111
1161, 110, 1035, 531
1162, 751, 1033, 793
1163, 518, 1045, 971
1164, 781, 1072, 911
1165, 168, 517, 6
1166, 824, 1082, 819
1167, 101, 1039, 510
1168, 111, 1035, 110
1169, 970, 1079, 789
1170, 518, 1040, 103
1171, 538, 539, 537
1172, 925, 1079, 943
1173, 943, 1079, 505
1174, 159, 1041, 158
1175, 152, 1042, 526
1176, 1071, 1082, 824
1177, 923, 1041, 1034
1178, 1010, 1034, 793
1179, 531, 1043, 109
1180, 104, 1045, 518
1181, 120, 1044, 119
1182, 129, 1049, 532
1183, 514, 1049, 130
1184, 124, 1050, 523
1185, 503, 1050, 125
1186, 513, 1058, 1041
1187, 515, 1060, 975
1188, 755, 1080, 823
1189, 504, 1051, 144
1190, 143, 1051, 527
1191, 996, 1054, 995
1192, 535, 1069, 1004
1193, 752, 1038, 753
1194, 102, 1039, 101
1195, 1080, 1081, 801
1196, 901, 1063, 784
1197, 103, 1040, 102
1198, 147, 1056, 528
1199, 506, 1020, 1017
1200, 513, 1041, 159
1201, 530, 1060, 113
1202, 112, 1060, 515
1203, 153, 1042, 152
1204, 505, 1065, 106
1205, 523, 1066, 123
1206, 532, 1068, 128
1207, 163, 1023, 1022
1208, 985, 1077, 1022
1209, 947, 1085, 1064
1210, 99, 1029, 1028
1211, 1004, 1069, 787
1212, 134, 1031, 1030
1213, 943, 1043, 926
1214, 528, 1056, 981
1215, 1021, 1055, 516
1216, 109, 1043, 108
1217, 516, 1076, 140
1218, 1015, 1075, 777
1219, 991, 1059, 756
1220, 517, 801, 788
1221, 126, 1078, 503
1222, 512, 1044, 120
1223, 105, 1045, 104
1224, 130, 1049, 129
1225, 517, 788, 6
1226, 125, 1050, 124
1227, 1001, 1046, 886
1228, 538, 1074, 843
1229, 785, 1067, 1011
1230, 1011, 1067, 512
1231, 527, 1051, 1015
1232, 1006, 1042, 153
1233, 1048, 1055, 1021
1234, 144, 1051, 143
1235, 95, 536, 519
1236, 820, 1062, 763
1237, 96, 1020, 506
1238, 891, 1053, 759
1239, 756, 1059, 901
1240, 1039, 1040, 783
1241, 804, 1087, 61
1242, 102, 1040, 1039
1243, 759, 1061, 803
1244, 536, 538, 537
1245, 982, 1052, 795
1246, 784, 1063, 1000
1247, 793, 1058, 792
1248, 526, 1072, 1024
1249, 885, 1055, 767
1250, 776, 1077, 985
1251, 503, 1078, 1014
1252, 536, 537, 519
1253, 995, 1054, 892
1254, 981, 1056, 983
1255, 148, 1056, 147
1256, 904, 1085, 947
1257, 903, 1057, 904
1258, 1000, 1063, 524
1259, 842, 1073, 671
1260, 991, 1084, 1030
1261, 527, 1048, 1021
1262, 792, 1083, 1013
1263, 113, 1060, 112
1264, 1013, 1077, 776
1265, 775, 1064, 783
1266, 106, 1065, 105
1267, 123, 1066, 122
1268, 786, 1067, 785
1269, 128, 1068, 127
1270, 763, 1062, 1032
1271, 1046, 1076, 516
1272, 1061, 1084, 803
1273, 105, 1065, 1045
1274, 754, 1071, 824
1275, 1037, 1047, 534
1276, 534, 1069, 535
1277, 1053, 1061, 759
1278, 1028, 1057, 520
1279, 794, 1072, 781
1280, 1047, 1069, 534
1281, 801, 1081, 802
1282, 787, 1069, 1047
1283, 529, 1077, 1013
1284, 3, 1087, 60
1285, 777, 1075, 779
1286, 140, 1076, 139
1287, 754, 1047, 1037
1288, 1034, 1058, 793
1289, 1008, 1062, 502
1290, 521, 1084, 1061
1291, 1039, 1064, 510
1292, 1064, 1085, 510
1293, 767, 1055, 1048
1294, 508, 1059, 1031
1295, 521, 1061, 1026
1296, 61, 1087, 3
1297, 127, 1078, 126
1298, 524, 1063, 1025
1299, 802, 1086, 796
1300, 1003, 1081, 755
1301, 789, 1079, 925
1302, 803, 1084, 991
1303, 783, 1064, 1039
1304, 802, 1081, 1003
1305, 755, 1081, 1080
1306, 1070, 1087, 804
1307, 1068, 1078, 127
1308, 536, 1074, 538
1309, 1001, 1076, 1046
1310, 1022, 1077, 529
1311, 1027, 1083, 513
1312, 1030, 1084, 521
1313, 510, 1085, 1029
1314, 1058, 1083, 792
1315, 1037, 1071, 754
1316, 823, 1080, 1036
1317, 513, 1083, 1058
1318, 1073, 1086, 802
1319, 60, 1087, 1070
*ELEMENT, type=CPS3, ELSET=Surface2
1320, 2, 202, 8
1321, 9, 205, 3
1322, 59, 202, 2
1323, 205, 61, 3
1324, 287, 1101, 142
1325, 262, 1096, 118
1326, 30, 1102, 173
1327, 234, 1103, 90
1328, 121, 1100, 265
1329, 171, 1098, 28
1330, 92, 1099, 236
1331, 145, 1097, 290
1332, 313, 1092, 167
1333, 96, 1093, 239
1334, 170, 1094, 27
1335, 93, 1095, 237
1336, 120, 1088, 264
1337, 288, 1089, 143
1338, 238, 95, 94
1339, 314, 169, 168
1340, 7, 1090, 1
1341, 4, 1091, 10
1342, 263, 1088, 119
1343, 144, 1089, 289
1344, 27, 1090, 170
1345, 237, 1091, 93
1346, 6, 1092, 12
1347, 11, 1093, 5
1348, 28, 1094, 171
1349, 236, 1095, 92
1350, 289, 1097, 144
1351, 29, 1098, 172
1352, 235, 1099, 91
1353, 264, 1100, 120
1354, 91, 1103, 235
1355, 172, 1102, 29
1356, 119, 1096, 263
1357, 143, 1101, 288
1358, 1, 1090, 27
1359, 93, 1091, 4
1360, 5, 1093, 96
1361, 167, 1092, 6
1362, 170, 1090, 7
1363, 10, 1091, 237
1364, 239, 1093, 11
1365, 12, 1092, 313
1366, 27, 1094, 28
1367, 28, 1098, 29
1368, 29, 1102, 30
1369, 90, 1103, 91
1370, 91, 1099, 92
1371, 92, 1095, 93
1372, 253, 109, 252
1373, 118, 1096, 119
1374, 119, 1088, 120
1375, 120, 1100, 121
1376, 142, 1101, 143
1377, 143, 1089, 144
1378, 144, 1097, 145
1379, 171, 1094, 170
1380, 172, 1098, 171
1381, 173, 1102, 172
1382, 235, 1103, 234
1383, 236, 1099, 235
1384, 237, 1095, 236
1385, 263, 1096, 262
1386, 264, 1088, 263
1387, 265, 1100, 264
1388, 288, 1101, 287
1389, 289, 1089, 288
1390, 290, 1097, 289
1391, 1, 169, 7
1392, 8, 203, 2
1393, 2, 203, 60
1394, 3, 204, 9
1395, 60, 204, 3
1396, 10, 94, 4
1397, 5, 95, 11
1398, 12, 168, 6
1399, 7, 169, 314
1400, 238, 94, 10
1401, 11, 95, 238
1402, 314, 168, 12
1403, 30, 173, 31
1404, 31, 174, 32
1405, 173, 174, 31
1406, 32, 175, 33
1407, 174, 175, 32
1408, 33, 176, 34
1409, 33, 175, 176
1410, 34, 177, 35
1411, 176, 177, 34
1412, 35, 178, 36
1413, 177, 178, 35
1414, 36, 179, 37
1415, 178, 179, 36
1416, 37, 180, 38
1417, 179, 180, 37
1418, 38, 181, 39
1419, 38, 180, 181
1420, 39, 182, 40
1421, 181, 182, 39
1422, 40, 183, 41
1423, 40, 182, 183
1424, 41, 184, 42
1425, 41, 183, 184
1426, 42, 185, 43
1427, 42, 184, 185
1428, 43, 186, 44
1429, 43, 185, 186
1430, 44, 187, 45
1431, 44, 186, 187
1432, 45, 188, 46
1433, 45, 187, 188
1434, 46, 189, 47
1435, 46, 188, 189
1436, 47, 190, 48
1437, 47, 189, 190
1438, 48, 191, 49
1439, 48, 190, 191
1440, 49, 192, 50
1441, 49, 191, 192
1442, 50, 193, 51
1443, 50, 192, 193
1444, 51, 194, 52
1445, 51, 193, 194
1446, 52, 195, 53
1447, 52, 194, 195
1448, 53, 196, 54
1449, 53, 195, 196
1450, 54, 197, 55
1451, 196, 197, 54
1452, 55, 198, 56
1453, 197, 198, 55
1454, 56, 199, 57
1455, 198, 199, 56
1456, 57, 200, 58
1457, 199, 200, 57
1458, 58, 201, 59
1459, 200, 201, 58
1460, 201, 202, 59
1461, 203, 204, 60
1462, 206, 62, 61
1463, 206, 61, 205
1464, 207, 63, 62
1465, 207, 62, 206
1466, 208, 64, 63
1467, 208, 63, 207
1468, 209, 65, 64
1469, 209, 64, 208
1470, 210, 66, 65
1471, 210, 65, 209
1472, 211, 67, 66
1473, 211, 66, 210
1474, 212, 68, 67
1475, 212, 67, 211
1476, 213, 69, 68
1477, 213, 68, 212
1478, 214, 70, 69
1479, 214, 69, 213
1480, 215, 71, 70
1481, 215, 70, 214
1482, 216, 72, 71
1483, 216, 71, 215
1484, 217, 73, 72
1485, 217, 72, 216
1486, 218, 74, 73
1487, 218, 73, 217
1488, 219, 75, 74
1489, 219, 74, 218
1490, 220, 76, 75
1491, 220, 75, 219
1492, 221, 77, 76
1493, 221, 76, 220
1494, 222, 78, 77
1495, 222, 77, 221
1496, 223, 79, 78
1497, 223, 78, 222
1498, 224, 80, 79
1499, 224, 79, 223
1500, 225, 81, 80
1501, 225, 80, 224
1502, 226, 82, 81
1503, 226, 81, 225
1504, 227, 83, 82
1505, 227, 82, 226
1506, 228, 84, 83
1507, 228, 83, 227
1508, 229, 85, 84
1509, 229, 84, 228
1510, 86, 85, 230
1511, 230, 85, 229
1512, 86, 231, 87
1513, 86, 230, 231
1514, 87, 232, 88
1515, 87, 231, 232
1516, 88, 233, 89
1517, 88, 232, 233
1518, 89, 234, 90
1519, 89, 233, 234
1520, 240, 97, 96
1521, 240, 96, 239
1522, 241, 98, 97
1523, 241, 97, 240
1524, 242, 99, 98
1525, 242, 98, 241
1526, 243, 100, 99
1527, 243, 99, 242
1528, 244, 101, 100
1529, 244, 100, 243
1530, 245, 102, 101
1531, 245, 101, 244
1532, 246, 103, 102
1533, 246, 102, 245
1534, 247, 104, 103
1535, 247, 103, 246
1536, 248, 105, 104
1537, 248, 104, 247
1538, 249, 106, 105
1539, 249, 105, 248
1540, 250, 107, 106
1541, 250, 106, 249
1542, 251, 108, 107
1543, 251, 107, 250
1544, 252, 109, 108
1545, 252, 108, 251
1546, 253, 110, 109
1547, 254, 111, 110
1548, 254, 110, 253
1549, 255, 112, 111
1550, 255, 111, 254
1551, 256, 113, 112
1552, 256, 112, 255
1553, 257, 114, 113
1554, 257, 113, 256
1555, 258, 115, 114
1556, 258, 114, 257
1557, 259, 116, 115
1558, 259, 115, 258
1559, 260, 117, 116
1560, 260, 116, 259
1561, 261, 118, 117
1562, 261, 117, 260
1563, 262, 118, 261
1564, 266, 122, 121
1565, 266, 121, 265
1566, 267, 123, 122
1567, 267, 122, 266
1568, 268, 124, 123
1569, 268, 123, 267
1570, 269, 125, 124
1571, 269, 124, 268
1572, 270, 126, 125
1573, 270, 125, 269
1574, 271, 127, 126
1575, 271, 126, 270
1576, 272, 128, 127
1577, 272, 127, 271
1578, 273, 129, 128
1579, 273, 128, 272
1580, 274, 130, 129
1581, 274, 129, 273
1582, 275, 131, 130
1583, 275, 130, 274
1584, 276, 132, 131
1585, 276, 131, 275
1586, 277, 133, 132
1587, 277, 132, 276
1588, 278, 134, 133
1589, 278, 133, 277
1590, 279, 135, 134
1591, 279, 134, 278
1592, 280, 136, 135
1593, 280, 135, 279
1594, 281, 137, 136
1595, 281, 136, 280
1596, 282, 138, 137
1597, 282, 137, 281
1598, 283, 139, 138
1599, 283, 138, 282
1600, 284, 140, 139
1601, 284, 139, 283
1602, 285, 141, 140
1603, 285, 140, 284
1604, 286, 142, 141
1605, 286, 141, 285
1606, 287, 142, 286
1607, 291, 146, 145
1608, 291, 145, 290
1609, 292, 147, 146
1610, 292, 146, 291
1611, 293, 148, 147
1612, 293, 147, 292
1613, 294, 149, 148
1614, 294, 148, 293
1615, 295, 150, 149
1616, 295, 149, 294
1617, 296, 151, 150
1618, 296, 150, 295
1619, 297, 152, 151
1620, 297, 151, 296
1621, 298, 153, 152
1622, 298, 152, 297
1623, 299, 154, 153
1624, 299, 153, 298
1625, 300, 155, 154
1626, 300, 154, 299
1627, 301, 156, 155
1628, 301, 155, 300
1629, 302, 157, 156
1630, 302, 156, 301
1631, 303, 158, 157
1632, 303, 157, 302
1633, 304, 159, 158
1634, 304, 158, 303
1635, 305, 160, 159
1636, 305, 159, 304
1637, 306, 161, 160
1638, 306, 160, 305
1639, 307, 162, 161
1640, 307, 161, 306
1641, 308, 163, 162
1642, 308, 162, 307
1643, 309, 164, 163
1644, 309, 163, 308
1645, 310, 165, 164
1646, 310, 164, 309
1647, 311, 166, 165
1648, 311, 165, 310
1649, 312, 167, 166
1650, 312, 166, 311
1651, 313, 167, 312
*ELEMENT, type=CPS3, ELSET=Surface3
1652, 13, 1104, 320
1653, 320, 1104, 319
1654, 315, 1104, 13
1655, 319, 1104, 318
1656, 316, 1104, 315
1657, 318, 1104, 317
1658, 317, 1104, 316
*ELEMENT, type=CPS3, ELSET=Surface4
1659, 321, 1105, 14
1660, 14, 1105, 326
1661, 322, 1105, 321
1662, 326, 1105, 325
1663, 323, 1105, 322
1664, 325, 1105, 324
1665, 324, 1105, 323
*ELEMENT, type=CPS3, ELSET=Surface5
1666, 15, 1106, 332
1667, 332, 1106, 331
1668, 327, 1106, 15
1669, 331, 1106, 330
1670, 328, 1106, 327
1671, 330, 1106, 329
1672, 329, 1106, 328
*ELEMENT, type=CPS3, ELSET=Surface6
1673, 338, 1107, 337
1674, 16, 1107, 338
1675, 337, 1107, 336
1676, 333, 1107, 16
1677, 336, 1107, 335
1678, 334, 1107, 333
1679, 335, 1107, 334
*ELEMENT, type=CPS3, ELSET=Surface7
1680, 302, 387, 301
1681, 251, 441, 250
1682, 196, 1195, 195
1683, 386, 387, 302
1684, 250, 441, 442
1685, 366, 367, 177
1686, 461, 462, 230
1687, 1154, 1192, 1163
1688, 492, 1226, 1165
1689, 178, 366, 177
1690, 230, 462, 229
1691, 365, 366, 178
1692, 462, 463, 229
1693, 496, 497, 203
1694, 494, 495, 204
1695, 179, 365, 178
1696, 229, 463, 228
1697, 364, 365, 179
1698, 463, 464, 228
1699, 180, 364, 179
1700, 228, 464, 227
1701, 363, 364, 180
1702, 464, 465, 227
1703, 1174, 1186, 1142
1704, 181, 363, 180
1705, 227, 465, 226
1706, 181, 362, 363
1707, 465, 466, 226
1708, 194, 19, 350
1709, 213, 478, 24
1710, 264, 427, 263
1711, 289, 401, 288
1712, 182, 362, 181
1713, 226, 466, 225
1714, 263, 427, 428
1715, 289, 400, 401
1716, 195, 19, 194
1717, 212, 213, 24
1718, 182, 361, 362
1719, 466, 467, 225
1720, 183, 361, 182
1721, 225, 467, 224
1722, 183, 360, 361
1723, 467, 468, 224
1724, 195, 1195, 19
1725, 184, 360, 183
1726, 224, 468, 223
1727, 184, 359, 360
1728, 468, 469, 223
1729, 185, 359, 184
1730, 223, 469, 222
1731, 204, 9, 494
1732, 497, 8, 203
1733, 185, 358, 359
1734, 469, 470, 222
1735, 186, 358, 185
1736, 470, 221, 222
1737, 186, 357, 358
1738, 471, 221, 470
1739, 277, 413, 276
1740, 276, 415, 275
1741, 276, 413, 414
1742, 276, 414, 415
1743, 187, 357, 186
1744, 220, 221, 471
1745, 187, 356, 357
1746, 472, 220, 471
1747, 1124, 1175, 1116
1748, 188, 356, 187
1749, 219, 220, 472
1750, 188, 355, 356
1751, 473, 219, 472
1752, 189, 355, 188
1753, 218, 219, 473
1754, 189, 354, 355
1755, 474, 218, 473
1756, 500, 1221, 1180
1757, 190, 354, 189
1758, 217, 218, 474
1759, 190, 353, 354
1760, 474, 475, 217
1761, 191, 353, 190
1762, 217, 475, 216
1763, 191, 352, 353
1764, 475, 476, 216
1765, 290, 399, 289
1766, 263, 429, 262
1767, 399, 400, 289
1768, 263, 428, 429
1769, 192, 352, 191
1770, 216, 476, 215
1771, 192, 351, 352
1772, 476, 477, 215
1773, 193, 351, 192
1774, 215, 477, 214
1775, 193, 350, 351
1776, 477, 478, 214
1777, 194, 350, 193
1778, 214, 478, 213
1779, 483, 1261, 1170
1780, 1169, 1261, 483
1781, 1168, 1262, 488
1782, 488, 1262, 1171
1783, 1165, 1217, 492
1784, 303, 385, 302
1785, 250, 443, 249
1786, 385, 386, 302
1787, 250, 442, 443
1788, 1179, 1216, 348
1789, 1114, 1204, 1173
1790, 1171, 1207, 487
1791, 484, 1209, 1169
1792, 301, 388, 300
1793, 252, 440, 251
1794, 339, 1269, 1221
1795, 197, 1183, 1154
1796, 387, 388, 301
1797, 251, 440, 441
1798, 18, 1216, 346
1799, 1143, 1184, 1176
1800, 343, 1235, 1219
1801, 202, 1211, 1172
1802, 265, 426, 264
1803, 288, 402, 287
1804, 484, 1169, 483
1805, 488, 1171, 487
1806, 483, 1170, 482
1807, 489, 1168, 488
1808, 264, 426, 427
1809, 401, 402, 288
1810, 1216, 1266, 346
1811, 339, 1221, 17
1812, 210, 1186, 1174
1813, 278, 412, 277
1814, 275, 416, 274
1815, 1156, 1199, 1170
1816, 1173, 1188, 1114
1817, 277, 412, 413
1818, 275, 415, 416
1819, 1175, 1182, 1116
1820, 1172, 1248, 202
1821, 1219, 1235, 1181
1822, 1142, 1212, 1174
1823, 1193, 1211, 1194
1824, 291, 398, 290
1825, 262, 430, 261
1826, 398, 399, 290
1827, 262, 429, 430
1828, 1170, 1199, 482
1829, 304, 384, 303
1830, 249, 444, 248
1831, 1195, 1228, 349
1832, 384, 385, 303
1833, 249, 443, 444
1834, 489, 1201, 1168
1835, 300, 389, 299
1836, 253, 439, 252
1837, 388, 389, 300
1838, 252, 439, 440
1839, 1191, 1269, 340
1840, 266, 425, 265
1841, 287, 403, 286
1842, 1209, 1233, 1169
1843, 1203, 1204, 1148
1844, 197, 1247, 1183
1845, 265, 425, 426
1846, 402, 403, 287
1847, 1176, 1184, 205
1848, 279, 411, 278
1849, 274, 417, 273
1850, 347, 1216, 18
1851, 278, 411, 412
1852, 274, 416, 417
1853, 292, 397, 291
1854, 261, 431, 260
1855, 1150, 1269, 1191
1856, 397, 398, 291
1857, 261, 430, 431
1858, 208, 1189, 1162
1859, 305, 383, 304
1860, 248, 445, 247
1861, 312, 376, 311
1862, 241, 452, 240
1863, 383, 384, 304
1864, 248, 444, 445
1865, 375, 376, 312
1866, 240, 452, 453
1867, 299, 390, 298
1868, 254, 438, 253
1869, 1265, 1271, 340
1870, 17, 1221, 501
1871, 389, 390, 299
1872, 253, 438, 439
1873, 267, 424, 266
1874, 286, 404, 285
1875, 1189, 1244, 1162
1876, 280, 410, 279
1877, 273, 418, 272
1878, 1176, 1213, 1143
1879, 266, 424, 425
1880, 286, 403, 404
1881, 493, 1226, 492
1882, 293, 396, 292
1883, 260, 432, 259
1884, 9, 1226, 494
1885, 279, 410, 411
1886, 273, 417, 418
1887, 306, 382, 305
1888, 247, 446, 246
1889, 311, 377, 310
1890, 242, 451, 241
1891, 19, 1195, 349
1892, 292, 396, 397
1893, 260, 431, 432
1894, 1154, 1195, 196
1895, 298, 391, 297
1896, 255, 437, 254
1897, 382, 383, 305
1898, 247, 445, 446
1899, 376, 377, 311
1900, 241, 451, 452
1901, 285, 405, 284
1902, 268, 423, 267
1903, 1193, 1194, 1122
1904, 1163, 1195, 1154
1905, 1124, 1178, 1175
1906, 1162, 1177, 207
1907, 281, 409, 280
1908, 272, 419, 271
1909, 7, 1205, 1196
1910, 1197, 1206, 10
1911, 390, 391, 298
1912, 254, 437, 438
1913, 294, 395, 293
1914, 259, 433, 258
1915, 285, 404, 405
1916, 267, 423, 424
1917, 307, 381, 306
1918, 246, 447, 245
1919, 7, 1196, 314
1920, 238, 1197, 10
1921, 310, 378, 309
1922, 243, 450, 242
1923, 1266, 1270, 345
1924, 297, 392, 296
1925, 256, 436, 255
1926, 280, 409, 410
1927, 272, 418, 419
1928, 284, 406, 283
1929, 269, 422, 268
1930, 1124, 1208, 1178
1931, 1208, 1244, 1178
1932, 282, 408, 281
1933, 271, 420, 270
1934, 25, 1199, 481
1935, 293, 395, 396
1936, 259, 432, 433
1937, 295, 394, 294
1938, 258, 434, 257
1939, 308, 380, 307
1940, 245, 448, 244
1941, 309, 379, 308
1942, 244, 449, 243
1943, 296, 393, 295
1944, 257, 435, 256
1945, 494, 1226, 493
1946, 283, 407, 282
1947, 270, 421, 269
1948, 381, 382, 306
1949, 246, 446, 447
1950, 377, 378, 310
1951, 242, 450, 451
1952, 1163, 1192, 1123
1953, 297, 391, 392
1954, 255, 436, 437
1955, 1173, 1204, 1203
1956, 284, 405, 406
1957, 268, 422, 423
1958, 1194, 1211, 1153
1959, 501, 1221, 500
1960, 281, 408, 409
1961, 271, 419, 420
1962, 482, 1199, 25
1963, 294, 394, 395
1964, 258, 433, 434
1965, 380, 381, 307
1966, 245, 447, 448
1967, 378, 379, 309
1968, 243, 449, 450
1969, 296, 392, 393
1970, 256, 435, 436
1971, 283, 406, 407
1972, 269, 421, 422
1973, 282, 407, 408
1974, 270, 420, 421
1975, 295, 393, 394
1976, 257, 434, 435
1977, 379, 380, 308
1978, 244, 448, 449
1979, 1164, 1264, 1243
1980, 1114, 1188, 199
1981, 1202, 1209, 484
1982, 490, 1201, 26
1983, 10, 1206, 237
1984, 170, 1205, 7
1985, 348, 1216, 347
1986, 487, 1207, 1200
1987, 26, 1201, 489
1988, 1163, 1228, 1195
1989, 211, 1186, 210
1990, 1162, 1208, 1177
1991, 1146, 1182, 1175
1992, 212, 1220, 211
1993, 205, 1184, 9
1994, 197, 1154, 196
1995, 206, 1177, 1176
1996, 348, 1227, 1179
1997, 1183, 1192, 1154
1998, 1201, 1260, 1168
1999, 340, 1271, 1191
2000, 200, 1114, 199
2001, 345, 1270, 1190
2002, 1180, 1231, 500
2003, 1164, 1243, 1156
2004, 1252, 1280, 1167
2005, 206, 1176, 205
2006, 1210, 1218, 1144
2007, 210, 1174, 209
2008, 344, 1235, 343
2009, 208, 1162, 207
2010, 24, 1220, 212
2011, 1155, 1252, 1167
2012, 485, 1202, 484
2013, 237, 1206, 23
2014, 20, 1205, 170
2015, 487, 1200, 486
2016, 207, 1177, 206
2017, 239, 1225, 11
2018, 12, 1224, 313
2019, 1144, 1267, 1210
2020, 1151, 1265, 1250
2021, 1231, 1232, 499
2022, 341, 1265, 340
2023, 1145, 1233, 1209
2024, 202, 1248, 201
2025, 201, 1198, 200
2026, 199, 1188, 198
2027, 209, 1189, 208
2028, 1174, 1189, 209
2029, 327, 1108, 328
2030, 325, 1109, 326
2031, 346, 1266, 345
2032, 1130, 1148, 1144
2033, 486, 1185, 485
2034, 1146, 1185, 1182
2035, 340, 1269, 339
2036, 200, 1198, 1114
2037, 342, 1187, 341
2038, 1138, 1244, 1189
2039, 202, 1291, 1211
2040, 1162, 1244, 1208
2041, 1177, 1259, 1176
2042, 21, 1224, 374
2043, 454, 1225, 22
2044, 1130, 1203, 1148
2045, 1138, 1241, 1178
2046, 198, 1247, 197
2047, 1146, 1175, 1133
2048, 1131, 1242, 1215
2049, 500, 1231, 499
2050, 374, 1224, 1196
2051, 1197, 1225, 454
2052, 345, 1253, 344
2053, 1184, 1226, 9
2054, 211, 1220, 1186
2055, 1175, 1241, 1133
2056, 11, 1197, 238
2057, 314, 1196, 12
2058, 201, 1248, 1198
2059, 1243, 1264, 480
2060, 349, 1227, 348
2061, 1208, 1249, 1177
2062, 23, 1255, 237
2063, 170, 1256, 20
2064, 1178, 1241, 1175
2065, 1115, 1124, 1116
2066, 1156, 1243, 1199
2067, 1249, 1259, 1177
2068, 1116, 1147, 1113
2069, 1112, 1145, 1133
2070, 1196, 1205, 374
2071, 454, 1206, 1197
2072, 1130, 1144, 1139
2073, 349, 1228, 1227
2074, 334, 1110, 335
2075, 318, 1111, 319
2076, 374, 1205, 20
2077, 23, 1206, 454
2078, 455, 1255, 23
2079, 20, 1256, 373
2080, 1120, 1121, 1108
2081, 1115, 1116, 1113
2082, 1109, 1119, 1118
2083, 1112, 1133, 1117
2084, 1121, 1130, 1129
2085, 1121, 1203, 1130
2086, 327, 1120, 1108
2087, 1109, 1118, 326
2088, 1161, 1173, 1127
2089, 1160, 1215, 1198
2090, 1212, 1268, 1174
2091, 1149, 1238, 1181
2092, 1178, 1244, 1138
2093, 317, 1126, 318
2094, 335, 1125, 336
2095, 1236, 1273, 1187
2096, 1192, 1274, 1123
2097, 1119, 1131, 1128
2098, 1190, 1253, 345
2099, 332, 1123, 15
2100, 14, 1122, 321
2101, 1122, 1275, 1193
2102, 1116, 1182, 1147
2103, 1136, 1192, 1183
2104, 1145, 1146, 1133
2105, 1172, 1193, 1137
2106, 1219, 1236, 343
2107, 375, 1276, 21
2108, 22, 1277, 453
2109, 1134, 1268, 1212
2110, 1222, 1274, 1136
2111, 491, 1280, 1252
2112, 1137, 1275, 1223
2113, 1250, 1265, 1187
2114, 1151, 1250, 1237
2115, 1144, 1218, 1159
2116, 1130, 1139, 1129
2117, 1198, 1248, 1160
2118, 1109, 1132, 1119
2119, 1121, 1129, 1108
2120, 342, 1236, 1187
2121, 1198, 1257, 1114
2122, 1119, 1210, 1131
2123, 1173, 1203, 1127
2124, 1139, 1181, 1129
2125, 1242, 1257, 1215
2126, 1136, 1274, 1192
2127, 1120, 1136, 1127
2128, 1128, 1137, 1118
2129, 1193, 1275, 1137
2130, 1155, 1260, 1252
2131, 1120, 1127, 1121
2132, 1119, 1128, 1118
2133, 1185, 1202, 485
2134, 1136, 1183, 1161
2135, 1160, 1172, 1137
2136, 1117, 1134, 1110
2137, 1111, 1135, 1115
2138, 1144, 1159, 1139
2139, 1161, 1188, 1173
2140, 1182, 1200, 1147
2141, 486, 1200, 1185
2142, 337, 1156, 338
2143, 491, 1252, 490
2144, 343, 1236, 342
2145, 497, 1258, 8
2146, 1147, 1254, 1234
2147, 1165, 1184, 1143
2148, 481, 1243, 480
2149, 1142, 1186, 1166
2150, 1189, 1268, 1138
2151, 315, 1155, 316
2152, 1181, 1235, 1149
2153, 1145, 1202, 1146
2154, 320, 1171, 13
2155, 13, 1168, 315
2156, 338, 1170, 16
2157, 16, 1169, 333
2158, 1215, 1257, 1198
2159, 1117, 1138, 1134
2160, 1181, 1238, 1129
2161, 1136, 1161, 1127
2162, 1128, 1160, 1137
2163, 1185, 1200, 1182
2164, 330, 1152, 331
2165, 322, 1150, 323
2166, 332, 1158, 1123
2167, 324, 1151, 325
2168, 328, 1149, 329
2169, 334, 1112, 1110
2170, 1146, 1202, 1185
2171, 1122, 1157, 321
2172, 1111, 1113, 319
2173, 1127, 1203, 1121
2174, 1217, 1280, 492
2175, 498, 1258, 497
2176, 480, 1264, 479
2177, 312, 1276, 375
2178, 453, 1277, 240
2179, 1149, 1253, 329
2180, 492, 1280, 491
2181, 8, 1291, 202
2182, 1214, 1263, 479
2183, 1142, 1166, 1140
2184, 1171, 1254, 1207
2185, 1141, 1165, 1143
2186, 1153, 1251, 1194
2187, 1200, 1207, 1147
2188, 323, 1191, 324
2189, 329, 1190, 330
2190, 237, 1255, 236
2191, 171, 1256, 170
2192, 479, 1264, 1214
2193, 1196, 1224, 12
2194, 11, 1225, 1197
2195, 455, 1287, 1255
2196, 1256, 1288, 373
2197, 1124, 1249, 1208
2198, 1145, 1209, 1202
2199, 1255, 1287, 236
2200, 171, 1288, 1256
2201, 1188, 1247, 198
2202, 329, 1253, 1190
2203, 1225, 1277, 22
2204, 21, 1276, 1224
2205, 1132, 1210, 1119
2206, 15, 1222, 327
2207, 326, 1223, 14
2208, 1204, 1242, 1148
2209, 1125, 1140, 336
2210, 1122, 1194, 1157
2211, 317, 1141, 1126
2212, 499, 1251, 498
2213, 1176, 1259, 1213
2214, 1112, 1117, 1110
2215, 1111, 1115, 1113
2216, 313, 1276, 312
2217, 240, 1277, 239
2218, 203, 1272, 496
2219, 495, 1272, 204
2220, 1120, 1222, 1136
2221, 1187, 1265, 341
2222, 1137, 1223, 1118
2223, 1174, 1268, 1189
2224, 1207, 1254, 1147
2225, 479, 1263, 24
2226, 1117, 1241, 1138
2227, 1131, 1215, 1128
2228, 1141, 1143, 1126
2229, 1115, 1249, 1124
2230, 1125, 1142, 1140
2231, 1152, 1179, 331
2232, 1152, 1216, 1179
2233, 230, 1290, 461
2234, 367, 1289, 177
2235, 337, 1164, 1156
2236, 1158, 1163, 1123
2237, 1147, 1234, 1113
2238, 333, 1233, 334
2239, 319, 1234, 320
2240, 1112, 1233, 1145
2241, 204, 1272, 203
2242, 1155, 1167, 316
2243, 1132, 1218, 1210
2244, 322, 1180, 1150
2245, 1213, 1259, 1135
2246, 1143, 1213, 1126
2247, 1148, 1267, 1144
2248, 1186, 1220, 1166
2249, 1125, 1212, 1142
2250, 1133, 1241, 1117
2251, 231, 1290, 230
2252, 177, 1289, 176
2253, 172, 1288, 171
2254, 236, 1287, 235
2255, 232, 1286, 231
2256, 176, 1285, 175
2257, 173, 1284, 172
2258, 235, 1283, 234
2259, 233, 1282, 232
2260, 175, 1281, 174
2261, 174, 1279, 173
2262, 234, 1278, 233
2263, 1172, 1211, 1193
2264, 458, 1278, 457
2265, 371, 1279, 370
2266, 459, 1282, 458
2267, 370, 1281, 369
2268, 457, 1283, 456
2269, 372, 1284, 371
2270, 460, 1286, 459
2271, 369, 1285, 368
2272, 456, 1287, 455
2273, 373, 1288, 372
2274, 461, 1290, 460
2275, 368, 1289, 367
2276, 458, 1282, 1278
2277, 1279, 1281, 370
2278, 1278, 1283, 457
2279, 371, 1284, 1279
2280, 459, 1286, 1282
2281, 1281, 1285, 369
2282, 1283, 1287, 456
2283, 372, 1288, 1284
2284, 460, 1290, 1286
2285, 1285, 1289, 368
2286, 1134, 1239, 1110
2287, 1111, 1240, 1135
2288, 331, 1229, 332
2289, 1166, 1214, 1140
2290, 1286, 1290, 231
2291, 176, 1289, 1285
2292, 235, 1287, 1283
2293, 1284, 1288, 172
2294, 1282, 1286, 232
2295, 175, 1285, 1281
2296, 1279, 1284, 173
2297, 234, 1283, 1278
2298, 1278, 1282, 233
2299, 174, 1281, 1279
2300, 1165, 1226, 1184
2301, 321, 1230, 322
2302, 496, 1272, 495
2303, 325, 1237, 1109
2304, 1108, 1238, 328
2305, 1141, 1217, 1165
2306, 1194, 1251, 1232
2307, 336, 1245, 337
2308, 1252, 1260, 1201
2309, 316, 1246, 317
2310, 1128, 1215, 1160
2311, 1139, 1219, 1181
2312, 1180, 1221, 1150
2313, 1153, 1258, 1251
2314, 1210, 1267, 1131
2315, 327, 1222, 1120
2316, 1118, 1223, 326
2317, 1109, 1237, 1132
2318, 1129, 1238, 1108
2319, 1161, 1247, 1188
2320, 1183, 1247, 1161
2321, 1159, 1219, 1139
2322, 1160, 1248, 1172
2323, 1199, 1243, 481
2324, 1158, 1229, 1227
2325, 1135, 1259, 1249
2326, 1132, 1250, 1218
2327, 1166, 1263, 1214
2328, 239, 1277, 1225
2329, 1224, 1276, 313
2330, 1131, 1267, 1242
2331, 344, 1253, 1235
2332, 1158, 1228, 1163
2333, 1214, 1245, 1140
2334, 1110, 1239, 335
2335, 1135, 1249, 1115
2336, 332, 1229, 1158
2337, 490, 1252, 1201
2338, 334, 1233, 1112
2339, 318, 1240, 1111
2340, 1113, 1234, 319
2341, 1227, 1228, 1158
2342, 1179, 1229, 331
2343, 1152, 1266, 1216
2344, 1227, 1229, 1179
2345, 1157, 1230, 321
2346, 1213, 1240, 1126
2347, 1141, 1246, 1217
2348, 1123, 1274, 15
2349, 1125, 1239, 1212
2350, 14, 1275, 1122
2351, 1138, 1268, 1134
2352, 1159, 1236, 1219
2353, 335, 1239, 1125
2354, 1126, 1240, 318
2355, 1164, 1245, 1214
2356, 1194, 1232, 1157
2357, 322, 1230, 1180
2358, 1114, 1257, 1204
2359, 1251, 1258, 498
2360, 1221, 1269, 1150
2361, 1217, 1246, 1167
2362, 1230, 1231, 1180
2363, 337, 1245, 1164
2364, 1167, 1246, 316
2365, 1157, 1231, 1230
2366, 1237, 1250, 1132
2367, 1140, 1245, 336
2368, 317, 1246, 1141
2369, 1212, 1239, 1134
2370, 1135, 1240, 1213
2371, 1220, 1263, 1166
2372, 1250, 1273, 1218
2373, 1151, 1237, 325
2374, 328, 1238, 1149
2375, 1157, 1232, 1231
2376, 1214, 1264, 1164
2377, 1235, 1253, 1149
2378, 1153, 1291, 1258
2379, 15, 1274, 1222
2380, 1223, 1275, 14
2381, 1242, 1267, 1148
2382, 320, 1254, 1171
2383, 315, 1260, 1155
2384, 1159, 1273, 1236
2385, 1168, 1260, 315
2386, 1234, 1254, 320
2387, 1211, 1291, 1153
2388, 1232, 1251, 499
2389, 1170, 1261, 16
2390, 16, 1261, 1169
2391, 1171, 1262, 13
2392, 13, 1262, 1168
2393, 1151, 1271, 1265
2394, 1167, 1280, 1217
2395, 330, 1270, 1152
2396, 324, 1271, 1151
2397, 24, 1263, 1220
2398, 1204, 1257, 1242
2399, 1152, 1270, 1266
2400, 1218, 1273, 1159
2401, 1191, 1271, 324
2402, 1190, 1270, 330
2403, 1187, 1273, 1250
2404, 1258, 1291, 8
2405, 1150, 1191, 323
2406, 1169, 1233, 333
2407, 1156, 1170, 338
*ELSET,ELSET=InflateSurface
1, 2, 3, 4, 5, 6, 7, 8, 9, 10, 
11, 12, 13, 14, 15, 16, 17, 18, 19, 20, 
21, 22, 23, 24, 25, 26, 27, 28, 29, 30, 
31, 32, 33, 34, 35, 36, 37, 38, 39, 40, 
41, 42, 43, 44, 45, 46, 47, 48, 49, 50, 
51, 52, 53, 54, 55, 56, 57, 58, 59, 60, 
61, 62, 63, 64, 65, 66, 67, 68, 69, 70, 
71, 72, 73, 74, 75, 76, 77, 78, 79, 80, 
81, 82, 83, 84, 85, 86, 87, 88, 89, 90, 
91, 92, 93, 94, 95, 96, 97, 98, 99, 100, 
101, 102, 103, 104, 105, 106, 107, 108, 109, 110, 
111, 112, 113, 114, 115, 116, 117, 118, 119, 120, 
121, 122, 123, 124, 125, 126, 127, 128, 129, 130, 
131, 132, 133, 134, 135, 136, 137, 138, 139, 140, 
141, 142, 143, 144, 145, 146, 147, 148, 149, 150, 
151, 152, 153, 154, 155, 156, 157, 158, 159, 160, 
161, 162, 163, 164, 165, 166, 167, 168, 169, 170, 
171, 172, 173, 174, 175, 176, 177, 178, 179, 180, 
181, 182, 183, 184, 185, 186, 187, 188, 189, 190, 
191, 192, 193, 194, 195, 196, 197, 198, 199, 200, 
201, 202, 203, 204, 205, 206, 207, 208, 209, 210, 
211, 212, 213, 214, 215, 216, 217, 218, 219, 220, 
221, 222, 223, 224, 225, 226, 227, 228, 229, 230, 
231, 232, 233, 234, 235, 236, 237, 238, 239, 240, 
241, 242, 243, 244, 245, 246, 247, 248, 249, 250, 
251, 252, 253, 254, 255, 256, 257, 258, 259, 260, 
261, 262, 263, 264, 265, 266, 267, 268, 269, 270, 
271, 272, 273, 274, 275, 276, 277, 278, 279, 280, 
281, 282, 283, 284, 285, 286, 287, 288, 289, 290, 
291, 292, 293, 294, 295, 296, 297, 298, 299, 300, 
301, 302, 303, 304, 305, 306, 307, 308, 309, 310, 
311, 312, 313, 314, 315, 316, 317, 318, 319, 320, 
321, 322, 323, 324, 325, 326, 327, 328, 329, 330, 
331, 332, 333, 334, 335, 336, 337, 338, 339, 340, 
341, 342, 343, 344, 345, 346, 347, 348, 349, 350, 
351, 352, 353, 354, 355, 356, 357, 358, 359, 360, 
361, 362, 363, 364, 365, 366, 367, 368, 369, 370, 
371, 372, 373, 374, 375, 376, 377, 378, 379, 380, 
381, 382, 383, 384, 385, 386, 387, 388, 389, 390, 
391, 392, 393, 394, 395, 396, 397, 398, 399, 400, 
401, 402, 403, 404, 405, 406, 407, 408, 409, 410, 
411, 412, 413, 414, 415, 416, 417, 418, 419, 420, 
421, 422, 423, 424, 425, 426, 427, 428, 429, 430, 
431, 432, 433, 434, 435, 436, 437, 438, 439, 440, 
441, 442, 443, 444, 445, 446, 447, 448, 449, 450, 
451, 452, 453, 454, 455, 456, 457, 458, 459, 460, 
461, 462, 463, 464, 465, 466, 467, 468, 469, 470, 
471, 472, 473, 474, 475, 476, 477, 478, 479, 480, 
481, 482, 483, 484, 485, 486, 487, 488, 489, 490, 
491, 492, 493, 494, 495, 496, 497, 498, 499, 500, 
501, 502, 503, 504, 505, 506, 507, 508, 509, 510, 
511, 512, 513, 514, 515, 516, 517, 518, 519, 520, 
521, 522, 523, 524, 525, 526, 527, 528, 529, 530, 
531, 532, 533, 534, 535, 536, 537, 538, 539, 540, 
541, 542, 543, 544, 545, 546, 547, 548, 549, 550, 
551, 552, 553, 554, 555, 556, 557, 558, 559, 560, 
561, 562, 563, 564, 565, 566, 567, 568, 569, 570, 
571, 572, 573, 574, 575, 576, 577, 578, 579, 580, 
581, 582, 583, 584, 585, 586, 587, 588, 589, 590, 
591, 592, 593, 594, 595, 596, 597, 598, 599, 600, 
601, 602, 603, 604, 605, 606, 607, 608, 609, 610, 
611, 612, 613, 614, 615, 616, 617, 618, 619, 620, 
621, 622, 623, 624, 625, 626, 627, 628, 629, 630, 
631, 632, 633, 634, 635, 636, 637, 638, 639, 640, 
641, 642, 643, 644, 645, 646, 647, 648, 649, 650, 
651, 652, 653, 654, 655, 656, 657, 658, 659, 660, 
661, 662, 663, 664, 665, 666, 667, 668, 669, 670, 
671, 672, 673, 674, 675, 676, 677, 678, 679, 680, 
681, 682, 683, 684, 685, 686, 687, 688, 689, 690, 
691, 692, 693, 694, 695, 696, 697, 698, 699, 700, 
701, 702, 703, 704, 705, 706, 707, 708, 709, 710, 
711, 712, 713, 714, 715, 716, 717, 718, 719, 720, 
721, 722, 723, 724, 725, 726, 727, 728, 729, 730, 
731, 732, 733, 734, 735, 736, 737, 738, 739, 740, 
741, 742, 743, 744, 745, 746, 747, 748, 749, 750, 
751, 752, 753, 754, 755, 756, 757, 758, 759, 760, 
761, 762, 763, 764, 765, 766, 767, 768, 769, 770, 
771, 772, 773, 774, 775, 776, 777, 778, 779, 780, 
781, 782, 783, 784, 785, 786, 787, 788, 789, 790, 
791, 792, 793, 794, 795, 796, 797, 798, 799, 800, 
801, 802, 803, 804, 805, 806, 807, 808, 809, 810, 
811, 812, 813, 814, 815, 816, 817, 818, 819, 820, 
821, 822, 823, 824, 825, 826, 827, 828, 829, 830, 
831, 832, 833, 834, 835, 836, 837, 838, 839, 840, 
841, 842, 843, 844, 845, 846, 847, 848, 849, 850, 
851, 852, 853, 854, 855, 856, 857, 858, 859, 860, 
861, 862, 863, 864, 865, 866, 867, 868, 869, 870, 
871, 872, 873, 874, 875, 876, 877, 878, 879, 880, 
881, 882, 883, 884, 885, 886, 887, 888, 889, 890, 
891, 892, 893, 894, 895, 896, 897, 898, 899, 900, 
901, 902, 903, 904, 905, 906, 907, 908, 909, 910, 
911, 912, 913, 914, 915, 916, 917, 918, 919, 920, 
921, 922, 923, 924, 925, 926, 927, 928, 929, 930, 
931, 932, 933, 934, 935, 936, 937, 938, 939, 940, 
941, 942, 943, 944, 945, 946, 947, 948, 949, 950, 
951, 952, 953, 954, 955, 956, 957, 958, 959, 960, 
961, 962, 963, 964, 965, 966, 967, 968, 969, 970, 
971, 972, 973, 974, 975, 976, 977, 978, 979, 980, 
981, 982, 983, 984, 985, 986, 987, 988, 989, 990, 
991, 992, 993, 994, 995, 996, 997, 998, 999, 1000, 
1001, 1002, 1003, 1004, 1005, 1006, 1007, 1008, 1009, 1010, 
1011, 1012, 1013, 1014, 1015, 1016, 1017, 1018, 1019, 1020, 
1021, 1022, 1023, 1024, 1025, 1026, 1027, 1028, 1029, 1030, 
1031, 1032, 1033, 1034, 1035, 1036, 1037, 1038, 1039, 1040, 
1041, 1042, 1043, 1044, 1045, 1046, 1047, 1048, 1049, 1050, 
1051, 1052, 1053, 1054, 1055, 1056, 1057, 1058, 1059, 1060, 
1061, 1062, 1063, 1064, 1065, 1066, 1067, 1068, 1069, 1070, 
1071, 1072, 1073, 1074, 1075, 1076, 1077, 1078, 1079, 1080, 
1081, 1082, 1083, 1084, 1085, 1086, 1087, 1088, 1089, 1090, 
1091, 1092, 1093, 1094, 1095, 1096, 1097, 1098, 1099, 1100, 
1101, 1102, 1103, 1104, 1105, 1106, 1107, 1108, 1109, 1110, 
1111, 1112, 1113, 1114, 1115, 1116, 1117, 1118, 1119, 1120, 
1121, 1122, 1123, 1124, 1125, 1126, 1127, 1128, 1129, 1130, 
1131, 1132, 1133, 1134, 1135, 1136, 1137, 1138, 1139, 1140, 
1141, 1142, 1143, 1144, 1145, 1146, 1147, 1148, 1149, 1150, 
1151, 1152, 1153, 1154, 1155, 1156, 1157, 1158, 1159, 1160, 
1161, 1162, 1163, 1164, 1165, 1166, 1167, 1168, 1169, 1170, 
1171, 1172, 1173, 1174, 1175, 1176, 1177, 1178, 1179, 1180, 
1181, 1182, 1183, 1184, 1185, 1186, 1187, 1188, 1189, 1190, 
1191, 1192, 1193, 1194, 1195, 1196, 1197, 1198, 1199, 1200, 
1201, 1202, 1203, 1204, 1205, 1206, 1207, 1208, 1209, 1210, 
1211, 1212, 1213, 1214, 1215, 1216, 1217, 1218, 1219, 1220, 
1221, 1222, 1223, 1224, 1225, 1226, 1227, 1228, 1229, 1230, 
1231, 1232, 1233, 1234, 1235, 1236, 1237, 1238, 1239, 1240, 
1241, 1242, 1243, 1244, 1245, 1246, 1247, 1248, 1249, 1250, 
1251, 1252, 1253, 1254, 1255, 1256, 1257, 1258, 1259, 1260, 
1261, 1262, 1263, 1264, 1265, 1266, 1267, 1268, 1269, 1270, 
1271, 1272, 1273, 1274, 1275, 1276, 1277, 1278, 1279, 1280, 
1281, 1282, 1283, 1284, 1285, 1286, 1287, 1288, 1289, 1290, 
1291, 1292, 1293, 1294, 1295, 1296, 1297, 1298, 1299, 1300, 
1301, 1302, 1303, 1304, 1305, 1306, 1307, 1308, 1309, 1310, 
1311, 1312, 1313, 1314, 1315, 1316, 1317, 1318, 1319, 
*ELSET,ELSET=Weld
1320, 1321, 1322, 1323, 1324, 1325, 1326, 1327, 1328, 1329, 
1330, 1331, 1332, 1333, 1334, 1335, 1336, 1337, 1338, 1339, 
1340, 1341, 1342, 1343, 1344, 1345, 1346, 1347, 1348, 1349, 
1350, 1351, 1352, 1353, 1354, 1355, 1356, 1357, 1358, 1359, 
1360, 1361, 1362, 1363, 1364, 1365, 1366, 1367, 1368, 1369, 
1370, 1371, 1372, 1373, 1374, 1375, 1376, 1377, 1378, 1379, 
1380, 1381, 1382, 1383, 1384, 1385, 1386, 1387, 1388, 1389, 
1390, 1391, 1392, 1393, 1394, 1395, 1396, 1397, 1398, 1399, 
1400, 1401, 1402, 1403, 1404, 1405, 1406, 1407, 1408, 1409, 
1410, 1411, 1412, 1413, 1414, 1415, 1416, 1417, 1418, 1419, 
1420, 1421, 1422, 1423, 1424, 1425, 1426, 1427, 1428, 1429, 
1430, 1431, 1432, 1433, 1434, 1435, 1436, 1437, 1438, 1439, 
1440, 1441, 1442, 1443, 1444, 1445, 1446, 1447, 1448, 1449, 
1450, 1451, 1452, 1453, 1454, 1455, 1456, 1457, 1458, 1459, 
1460, 1461, 1462, 1463, 1464, 1465, 1466, 1467, 1468, 1469, 
1470, 1471, 1472, 1473, 1474, 1475, 1476, 1477, 1478, 1479, 
1480, 1481, 1482, 1483, 1484, 1485, 1486, 1487, 1488, 1489, 
1490, 1491, 1492, 1493, 1494, 1495, 1496, 1497, 1498, 1499, 
1500, 1501, 1502, 1503, 1504, 1505, 1506, 1507, 1508, 1509, 
1510, 1511, 1512, 1513, 1514, 1515, 1516, 1517, 1518, 1519, 
1520, 1521, 1522, 1523, 1524, 1525, 1526, 1527, 1528, 1529, 
1530, 1531, 1532, 1533, 1534, 1535, 1536, 1537, 1538, 1539, 
1540, 1541, 1542, 1543, 1544, 1545, 1546, 1547, 1548, 1549, 
1550, 1551, 1552, 1553, 1554, 1555, 1556, 1557, 1558, 1559, 
1560, 1561, 1562, 1563, 1564, 1565, 1566, 1567, 1568, 1569, 
1570, 1571, 1572, 1573, 1574, 1575, 1576, 1577, 1578, 1579, 
1580, 1581, 1582, 1583, 1584, 1585, 1586, 1587, 1588, 1589, 
1590, 1591, 1592, 1593, 1594, 1595, 1596, 1597, 1598, 1599, 
1600, 1601, 1602, 1603, 1604, 1605, 1606, 1607, 1608, 1609, 
1610, 1611, 1612, 1613, 1614, 1615, 1616, 1617, 1618, 1619, 
1620, 1621, 1622, 1623, 1624, 1625, 1626, 1627, 1628, 1629, 
1630, 1631, 1632, 1633, 1634, 1635, 1636, 1637, 1638, 1639, 
1640, 1641, 1642, 1643, 1644, 1645, 1646, 1647, 1648, 1649, 
1650, 1651, 
*ELSET,ELSET=Anchor
1652, 1653, 1654, 1655, 1656, 1657, 1658, 1659, 1660, 1661, 
1662, 1663, 1664, 1665, 1666, 1667, 1668, 1669, 1670, 1671, 
1672, 1673, 1674, 1675, 1676, 1677, 1678, 1679, 
*ELSET,ELSET=FreeSurface
1680, 1681, 1682, 1683, 1684, 1685, 1686, 1687, 1688, 1689, 
1690, 1691, 1692, 1693, 1694, 1695, 1696, 1697, 1698, 1699, 
1700, 1701, 1702, 1703, 1704, 1705, 1706, 1707, 1708, 1709, 
1710, 1711, 1712, 1713, 1714, 1715, 1716, 1717, 1718, 1719, 
1720, 1721, 1722, 1723, 1724, 1725, 1726, 1727, 1728, 1729, 
1730, 1731, 1732, 1733, 1734, 1735, 1736, 1737, 1738, 1739, 
1740, 1741, 1742, 1743, 1744, 1745, 1746, 1747, 1748, 1749, 
1750, 1751, 1752, 1753, 1754, 1755, 1756, 1757, 1758, 1759, 
1760, 1761, 1762, 1763, 1764, 1765, 1766, 1767, 1768, 1769, 
1770, 1771, 1772, 1773, 1774, 1775, 1776, 1777, 1778, 1779, 
1780, 1781, 1782, 1783, 1784, 1785, 1786, 1787, 1788, 1789, 
1790, 1791, 1792, 1793, 1794, 1795, 1796, 1797, 1798, 1799, 
1800, 1801, 1802, 1803, 1804, 1805, 1806, 1807, 1808, 1809, 
1810, 1811, 1812, 1813, 1814, 1815, 1816, 1817, 1818, 1819, 
1820, 1821, 1822, 1823, 1824, 1825, 1826, 1827, 1828, 1829, 
1830, 1831, 1832, 1833, 1834, 1835, 1836, 1837, 1838, 1839, 
1840, 1841, 1842, 1843, 1844, 1845, 1846, 1847, 1848, 1849, 
1850, 1851, 1852, 1853, 1854, 1855, 1856, 1857, 1858, 1859, 
1860, 1861, 1862, 1863, 1864, 1865, 1866, 1867, 1868, 1869, 
1870, 1871, 1872, 1873, 1874, 1875, 1876, 1877, 1878, 1879, 
1880, 1881, 1882, 1883, 1884, 1885, 1886, 1887, 1888, 1889, 
1890, 1891, 1892, 1893, 1894, 1895, 1896, 1897, 1898, 1899, 
1900, 1901, 1902, 1903, 1904, 1905, 1906, 1907, 1908, 1909, 
1910, 1911, 1912, 1913, 1914, 1915, 1916, 1917, 1918, 1919, 
1920, 1921, 1922, 1923, 1924, 1925, 1926, 1927, 1928, 1929, 
1930, 1931, 1932, 1933, 1934, 1935, 1936, 1937, 1938, 1939, 
1940, 1941, 1942, 1943, 1944, 1945, 1946, 1947, 1948, 1949, 
1950, 1951, 1952, 1953, 1954, 1955, 1956, 1957, 1958, 1959, 
1960, 1961, 1962, 1963, 1964, 1965, 1966, 1967, 1968, 1969, 
1970, 1971, 1972, 1973, 1974, 1975, 1976, 1977, 1978, 1979, 
1980, 1981, 1982, 1983, 1984, 1985, 1986, 1987, 1988, 1989, 
1990, 1991, 1992, 1993, 1994, 1995, 1996, 1997, 1998, 1999, 
2000, 2001, 2002, 2003, 2004, 2005, 2006, 2007, 2008, 2009, 
2010, 2011, 2012, 2013, 2014, 2015, 2016, 2017, 2018, 2019, 
2020, 2021, 2022, 2023, 2024, 2025, 2026, 2027, 2028, 2029, 
2030, 2031, 2032, 2033, 2034, 2035, 2036, 2037, 2038, 2039, 
2040, 2041, 2042, 2043, 2044, 2045, 2046, 2047, 2048, 2049, 
2050, 2051, 2052, 2053, 2054, 2055, 2056, 2057, 2058, 2059, 
2060, 2061, 2062, 2063, 2064, 2065, 2066, 2067, 2068, 2069, 
2070, 2071, 2072, 2073, 2074, 2075, 2076, 2077, 2078, 2079, 
2080, 2081, 2082, 2083, 2084, 2085, 2086, 2087, 2088, 2089, 
2090, 2091, 2092, 2093, 2094, 2095, 2096, 2097, 2098, 2099, 
2100, 2101, 2102, 2103, 2104, 2105, 2106, 2107, 2108, 2109, 
2110, 2111, 2112, 2113, 2114, 2115, 2116, 2117, 2118, 2119, 
2120, 2121, 2122, 2123, 2124, 2125, 2126, 2127, 2128, 2129, 
2130, 2131, 2132, 2133, 2134, 2135, 2136, 2137, 2138, 2139, 
2140, 2141, 2142, 2143, 2144, 2145, 2146, 2147, 2148, 2149, 
2150, 2151, 2152, 2153, 2154, 2155, 2156, 2157, 2158, 2159, 
2160, 2161, 2162, 2163, 2164, 2165, 2166, 2167, 2168, 2169, 
2170, 2171, 2172, 2173, 2174, 2175, 2176, 2177, 2178, 2179, 
2180, 2181, 2182, 2183, 2184, 2185, 2186, 2187, 2188, 2189, 
2190, 2191, 2192, 2193, 2194, 2195, 2196, 2197, 2198, 2199, 
2200, 2201, 2202, 2203, 2204, 2205, 2206, 2207, 2208, 2209, 
2210, 2211, 2212, 2213, 2214, 2215, 2216, 2217, 2218, 2219, 
2220, 2221, 2222, 2223, 2224, 2225, 2226, 2227, 2228, 2229, 
2230, 2231, 2232, 2233, 2234, 2235, 2236, 2237, 2238, 2239, 
2240, 2241, 2242, 2243, 2244, 2245, 2246, 2247, 2248, 2249, 
2250, 2251, 2252, 2253, 2254, 2255, 2256, 2257, 2258, 2259, 
2260, 2261, 2262, 2263, 2264, 2265, 2266, 2267, 2268, 2269, 
2270, 2271, 2272, 2273, 2274, 2275, 2276, 2277, 2278, 2279, 
2280, 2281, 2282, 2283, 2284, 2285, 2286, 2287, 2288, 2289, 
2290, 2291, 2292, 2293, 2294, 2295, 2296, 2297, 2298, 2299, 
2300, 2301, 2302, 2303, 2304, 2305, 2306, 2307, 2308, 2309, 
2310, 2311, 2312, 2313, 2314, 2315, 2316, 2317, 2318, 2319, 
2320, 2321, 2322, 2323, 2324, 2325, 2326, 2327, 2328, 2329, 
2330, 2331, 2332, 2333, 2334, 2335, 2336, 2337, 2338, 2339, 
2340, 2341, 2342, 2343, 2344, 2345, 2346, 2347, 2348, 2349, 
2350, 2351, 2352, 2353, 2354, 2355, 2356, 2357, 2358, 2359, 
2360, 2361, 2362, 2363, 2364, 2365, 2366, 2367, 2368, 2369, 
2370, 2371, 2372, 2373, 2374, 2375, 2376, 2377, 2378, 2379, 
2380, 2381, 2382, 2383, 2384, 2385, 2386, 2387, 2388, 2389, 
2390, 2391, 2392, 2393, 2394, 2395, 2396, 2397, 2398, 2399, 
2400, 2401, 2402, 2403, 2404, 2405, 2406, 2407, 
